**
** ABAQUS Input Deck Generated by HyperMesh Version  : 2025.0.0.24
** Generated using HyperMesh-Abaqus Template Version : 2025.0.0.24-168648
** Generated on 06-02-2026 at 20:57:40
**
**   Template:  ABAQUS/STANDARD 3D
**
*NODE
         1,  6.0            ,  1.671936997E-14,  1.000000000E-03
         2,  5.638155702292 ,  -2.052120921562,  0.0            
         3,  4.5962666286122,  -3.856725693993,  0.0            
         4,  2.9999999756665,  -5.196152436756,  0.0            
         5,  1.0418890567779,  -5.9088465197  ,  0.0            
         6,  -1.041889056778,  -5.9088465197  ,  0.0            
         7,  -2.999999975666,  -5.196152436756,  0.0            
         8,  -4.596266628612,  -3.856725693993,  0.0            
         9,  -5.638155702292,  -2.052120921562,  0.0            
        10,  -6.0           ,  0.0            ,  0.0            
        11,  -5.638155724715,  2.052120859954 ,  0.0            
        12,  -4.596266658714,  3.8567256581192,  0.0            
        13,  -3.0           ,  5.1961524227066,  4.797849137E-15
        14,  -1.041889066002,  5.9088465180732,  4.797849137E-15
        15,  1.0418890660016,  5.9088465180733,  0.0            
        16,  3.0            ,  5.1961524227066,  0.0            
        17,  4.5962666587138,  3.8567256581193,  0.0            
        18,  5.6381557247154,  2.052120859954 ,  0.0            
        19,  4.7452981668988,  -0.050177066747,  0.0            
        20,  0.8778270284707,  -4.664066583858,  0.0            
        21,  -4.745130317832,  0.048514730476 ,  0.0            
        22,  -0.877797166957,  4.6632258915172,  0.0            
        23,  2.0706472738407,  -3.809064600623,  0.0            
        24,  3.214420198105 ,  -2.693657481503,  0.0            
        25,  4.112355186808 ,  -1.372268483643,  0.0            
        26,  -4.068820942662,  -1.216055849318,  0.0            
        27,  -3.107169196656,  -2.461216830126,  0.0            
        28,  -1.877214830053,  -3.491484783024,  0.0            
        29,  -0.483252820166,  -4.219710801924,  0.0            
        30,  -2.070748418104,  3.8077312012715,  0.0            
        31,  -3.21451609713 ,  2.6919625743671,  0.0            
        32,  -4.112433502526,  1.3702724345088,  0.0            
        33,  4.0693092220162,  1.2140418011171,  0.0            
        34,  3.107696207832 ,  2.4594262043544,  0.0            
        35,  1.8776504618365,  3.4899830148692,  0.0            
        36,  0.4834425500307,  4.2185503572262,  0.0            
        37,  -0.613008527509,  -1.958143256192,  0.0            
        38,  0.6201526444235,  -0.519880569399,  0.0            
        39,  1.8179286521947,  0.9479740914298,  0.0            
        40,  1.8808155333241,  -1.574847858583,  0.0            
        41,  0.7055139363141,  -2.848025725044,  0.0            
        42,  2.9268420337487,  -0.193699330799,  0.0            
        43,  -1.880639856627,  1.5723104660455,  0.0            
        44,  -0.619687352579,  0.517211396462 ,  0.0            
        45,  -2.926541254249,  0.1908878856257,  0.0            
        46,  -1.817423112695,  -0.950675971239,  0.0            
        47,  -0.705400718794,  2.8459790784408,  0.0            
        48,  0.6134562766828,  1.9557228350903,  0.0            
        49,  9.9311487414179,  -5.891147427214,  40.0           
        50,  8.253239124732 ,  -6.833656324751,  40.0           
        51,  6.5753295080462,  -7.776165222288,  40.0           
        52,  4.8974198913603,  -8.718674119825,  40.0           
        53,  3.2195102746744,  -9.661183017362,  40.0           
        54,  1.5416006579885,  -10.6036919149 ,  40.0           
        55,  -0.136308958697,  -11.54620081244,  40.0           
        56,  -1.7915004156  ,  -10.5643429079 ,  40.0           
        57,  -3.446691872503,  -9.582485003365,  40.0           
        58,  -5.101883329406,  -8.60062709883 ,  40.0           
        59,  -6.757074786309,  -7.618769194294,  40.0           
        60,  -8.412266243212,  -6.636911289758,  40.0           
        61,  -10.06745770012,  -5.655053385223,  40.0           
        62,  -10.04473954033,  -3.73068658315 ,  40.0           
        63,  -10.02202138055,  -1.806319781077,  40.0           
        64,  -9.999303220767,  0.1180470209954,  40.0           
        65,  -9.976585060984,  2.0424138230681,  40.0           
        66,  -9.953866901201,  3.9667806251409,  40.0           
        67,  -9.931148741418,  5.8911474272137,  40.0           
        68,  -8.253239124732,  6.8336563247508,  40.0           
        69,  -6.575329508046,  7.776165222288 ,  40.0           
        70,  -4.89741989136 ,  8.7186741198252,  40.0           
        71,  -3.219510274674,  9.6611830173623,  40.0           
        72,  -1.541600657988,  10.6036919149  ,  40.0           
        73,  0.1363089586974,  11.546200812437,  40.0           
        74,  1.7915004156004,  10.564342907901,  40.0           
        75,  3.4466918725034,  9.5824850033654,  40.0           
        76,  5.1018833294064,  8.6006270988298,  40.0           
        77,  6.7570747863094,  7.6187691942942,  40.0           
        78,  8.4122662432124,  6.6369112897586,  40.0           
        79,  10.067457700115,  5.655053385223 ,  40.0           
        80,  10.044739540332,  3.7306865831502,  40.0           
        81,  10.02202138055 ,  1.8063197810774,  40.0           
        82,  9.9993032207666,  -0.118047020995,  40.0           
        83,  9.9765850609837,  -2.042413823068,  40.0           
        84,  9.9538669012008,  -3.966780625141,  40.0           
        85,  -6.000000000092,  1.452982570E-12,  40.0           
        86,  -5.637045463799,  -2.051718327487,  40.0           
        87,  -4.596118877139,  -3.856600613941,  40.0           
        88,  -2.999377254773,  -5.19508281402 ,  40.0           
        89,  -1.041772581775,  -5.908149918207,  40.0           
        90,  1.0417122480234,  -5.907807404108,  40.0           
        91,  2.9995310494277,  -5.195352115988,  40.0           
        92,  4.5956333305659,  -3.856185117786,  40.0           
        93,  5.6371956583331,  -2.051775619621,  40.0           
        94,  5.9999990656671,  1.441631875E-08,  40.0           
        95,  5.6381557247155,  2.052120859954 ,  40.0           
        96,  4.5962666587138,  3.8567256581193,  40.0           
        97,  3.0            ,  5.1961524227066,  40.0           
        98,  1.0418890660015,  5.9088465180733,  40.0           
        99,  -1.041889066001,  5.9088465180733,  40.0           
       100,  -3.0           ,  5.1961524227066,  40.0           
       101,  -4.596266658714,  3.8567256581193,  40.0           
       102,  -5.638155724715,  2.052120859954 ,  40.0           
       103,  7.6683388878985,  -5.164498595483,  40.0           
       104,  5.6411182759952,  -5.933855716928,  40.0           
       105,  3.858691913387 ,  -6.925008225579,  40.0           
       106,  1.9101676019574,  -7.801991328098,  40.0           
       107,  -0.25880976882 ,  -8.55632718943 ,  40.0           
       108,  -2.457342449882,  -7.744410949817,  40.0           
       109,  -4.165906254931,  -7.525581988832,  40.0           
       110,  -5.022496614868,  -6.362906464718,  40.0           
       111,  -8.297702485486,  -4.070306200661,  40.0           
       112,  -7.957416954637,  -1.93784947233 ,  40.0           
       113,  -7.927489822694,  0.1113352114046,  40.0           
       114,  -7.712651042198,  2.2420474949315,  40.0           
       115,  -7.274112718337,  4.5073553762892,  40.0           
       116,  -5.464894415997,  6.0107624518083,  40.0           
       117,  -4.414310759501,  7.3805263864002,  40.0           
       118,  -2.979340362588,  7.5380977973842,  40.0           
       119,  0.6388829985375,  9.2231049306972,  40.0           
       120,  2.3194817158497,  7.851930732484 ,  40.0           
       121,  4.0710835816903,  6.8026851832243,  40.0           
       122,  5.8064303726318,  5.5514228742502,  40.0           
       123,  7.5436868027385,  4.0427694996571,  40.0           
       124,  7.938858473253 ,  1.7252718813478,  40.0           
       125,  8.5990968404412,  0.1319453679897,  40.0           
       126,  8.0177509302772,  -1.189255224196,  40.0           
       127,  6.7381022229005,  -3.943757327258,  40.0           
       128,  0.0465709428795,  7.8076162599024,  40.0           
       129,  -6.77527907016 ,  -3.878193295043,  40.0           
       130,  -1.431873075912,  7.9839439755322,  40.0           
       131,  7.6298467654192,  -2.751851068413,  40.0           
       132,  -6.179285781923,  -5.254865892932,  40.0           
       133,  -6.000000000005,  7.266928004E-14,  2.0000000001683
       134,  -6.000000000009,  1.453385601E-13,  4.0            
       135,  -6.000000000014,  2.180078401E-13,  6.0000000001332
       136,  -6.000000000018,  2.906771201E-13,  8.0000000000003
       137,  -6.000000000023,  3.633464002E-13,  9.9999999999995
       138,  -6.000000000028,  4.360156802E-13,  11.999999999999
       139,  -6.000000000032,  5.086849602E-13,  13.999999999999
       140,  -6.000000000037,  5.813542402E-13,  15.999999999998
       141,  -6.000000000042,  6.540235203E-13,  18.000000000052
       142,  -6.000000000046,  7.266928003E-13,  20.000000000042
       143,  -6.000000000051,  7.993620803E-13,  22.000000000002
       144,  -6.000000000056,  8.720313604E-13,  23.999999999994
       145,  -6.00000000006 ,  9.447006404E-13,  25.999999999985
       146,  -6.000000000065,  1.017369920E-12,  27.999999999975
       147,  -6.000000000069,  1.090039200E-12,  30.000000000009
       148,  -6.000000000074,  1.162708480E-12,  32.000000000006
       149,  -6.000000000079,  1.235377761E-12,  34.000000000002
       150,  -6.000000000083,  1.308047040E-12,  35.999999994789
       151,  -6.000000000088,  1.380716321E-12,  37.999999999421
       152,  5.9999999532798,  7.208840210E-10,  2.0009499998318
       153,  5.9999999065597,  1.441756651E-09,  4.0009000000001
       154,  5.9999998598396,  2.162626617E-09,  6.0008499999994
       155,  5.9999998131194,  2.883496583E-09,  8.0007999999996
       156,  5.9999997663993,  3.604366548E-09,  10.000750000002
       157,  5.9999997196791,  4.325236514E-09,  12.000700000001
       158,  5.999999672959 ,  5.046106480E-09,  14.000650000005
       159,  5.9999996262388,  5.766976446E-09,  16.000600000006
       160,  5.9999995795187,  6.487846412E-09,  18.000550000006
       161,  5.9999995327985,  7.208716378E-09,  20.000500000064
       162,  5.9999994860784,  7.929586343E-09,  22.000450000052
       163,  5.9999994393582,  8.650456309E-09,  24.00040000003 
       164,  5.9999993926381,  9.371326275E-09,  26.00035000001 
       165,  5.9999993459179,  1.009219624E-08,  28.000300000019
       166,  5.9999992991978,  1.081306621E-08,  30.000250000012
       167,  5.9999992524776,  1.153393617E-08,  32.000200000007
       168,  5.9999992057575,  1.225480347E-08,  34.000150000003
       169,  5.9999991590373,  1.297567610E-08,  36.00009999998 
       170,  5.9999991123172,  1.369654607E-08,  38.000050000038
       171,  -5.638155792979,  2.0521207010858,  2.000105555568 
       172,  -4.596266682227,  3.8567256551748,  2.0002111111301
       173,  -3.000000049676,  5.1961524124958,  2.0003166666875
       174,  -1.041889113738,  5.9088465176206,  2.0004222222491
       175,  1.0418889866048,  5.9088465237207,  2.0005277778062
       176,  2.9999999535665,  5.1961524145136,  2.0006333333644
       177,  4.5962662313128,  3.8567260819913,  2.00073888892  
       178,  5.6381556526754,  2.0521208309483,  2.0008444444662
       179,  -5.638155794302,  2.0521207261364,  4.0001000000239
       180,  -4.596266697665,  3.8567256618553,  4.0002000000364
       181,  -3.000000139366,  5.1961523791824,  4.0003000000403
       182,  -1.041889168542,  5.9088465159218,  4.0004000000521
       183,  1.0418889364139,  5.9088465242184,  4.0005000000552
       184,  2.9999999380563,  5.196152388467 ,  4.0006000000606
       185,  4.5962661798798,  3.856726057802 ,  4.0007000000588
       186,  5.6381555964814,  2.0521207584059,  4.0008000000434
       187,  -5.638155796265,  2.0521207494286,  6.0000944444785
       188,  -4.596266713021,  3.8567256686326,  6.0001888889408
       189,  -3.000000224998,  5.1961523482123,  6.0002833333908
       190,  -1.041889227065,  5.9088465135672,  6.0003777778521
       191,  1.0418888838227,  5.9088465251393,  6.0004722223011
       192,  2.9999999239411,  5.196152361615 ,  6.0005666667534
       193,  4.5962661285915,  3.8567260334403,  6.0006611111944
       194,  5.6381555406454,  2.0521206848798,  6.0007555556181
       195,  -5.638155797506,  2.0521207747032,  8.0000888889317
       196,  -4.596266728487,  3.8567256752787,  8.0001777778431
       197,  -3.000000309186,  5.1961523180762,  8.000266666739 
       198,  -1.041889294189,  5.9088465096959,  8.0003555556492
       199,  1.0418888331494,  5.908846525722 ,  8.0004444445438
       200,  2.9999999106882,  5.1961523342651,  8.0005333334427
       201,  4.5962660770571,  3.8567260093719,  8.0006222223268
       202,  5.6381554846998,  2.0521206116548,  8.0007111111903
       203,  -5.638155799   ,  2.0521207992835,  10.000083333384
       204,  -4.59626674374 ,  3.8567256821789,  10.000166666743
       205,  -3.000000399559,  5.1961522843686,  10.000250000085
       206,  -1.041889347834,  5.9088465082014,  10.000333333443
       207,  1.0418887825445,  5.9088465262926,  10.000416666783
       208,  2.9999998943247,  5.196152308711 ,  10.000500000128
       209,  4.596266025408 ,  3.85672598544  ,  10.000583333456
       210,  5.6381554284768,  2.0521205391922,  10.00066666676 
       211,  -5.638155800606,  2.0521208235578,  12.000077777834
       212,  -4.596266759119,  3.8567256889295,  12.000155555642
       213,  -3.000000488937,  5.1961522512359,  12.000233333429
       214,  -1.041889398759,  5.9088465071866,  12.000311111234
       215,  1.0418887321994,  5.9088465268174,  12.00038888902 
       216,  2.9999998811486,  5.1961522813168,  12.000466666811
       217,  4.5962659740719,  3.8567259611354,  12.000544444582
       218,  5.638155373369 ,  2.0521204636653,  12.000622222327
       219,  -5.638155801198,  2.0521208506167,  14.000072222283
       220,  -4.59626677437 ,  3.8567256958316,  14.000144444538
       221,  -3.000000573139,  5.1961522210915,  14.00021666677 
       222,  -1.041889447536,  5.9088465065504,  14.000288889023
       223,  1.0418886890284,  5.9088465260773,  14.000361111253
       224,  2.9999998648263,  5.196152255739 ,  14.00043333349 
       225,  4.59626592292  ,  3.856725936611 ,  14.000505555704
       226,  5.6381553168113,  2.0521203921221,  14.000577777892
       227,  -5.638155804448,  2.052120870371 ,  16.000066666731
       228,  -4.596266789754,  3.8567257025753,  16.000133333432
       229,  -3.000000663164,  5.196152187585 ,  16.000200000109
       230,  -1.041889515414,  5.9088465025463,  16.000266666808
       231,  1.0418886327527,  5.9088465276478,  16.000333333483
       232,  2.9999998524808,  5.1961522278652,  16.000400000165
       233,  4.596265871377 ,  3.8567259125528,  16.000466666824
       234,  5.6381552609932,  2.0521203185468,  16.000533333454
       235,  -5.638155804066,  2.0521209001075,  18.000061111178
       236,  -4.596266805384,  3.856725709027 ,  18.000122222324
       237,  -3.000000741956,  5.196152160564 ,  18.000183333446
       238,  -1.041889562005,  5.9088465022956,  18.00024444459 
       239,  1.0418885752289,  5.9088465294384,  18.00030555571 
       240,  2.9999998354254,  5.1961522027106,  18.000366666837
       241,  4.5962658199351,  3.856725888374 ,  18.00042777794 
       242,  5.6381552064641,  2.05212024143  ,  18.000488889013
       243,  -5.638155805308,  2.052120925378 ,  20.000055555623
       244,  -4.596266820636,  3.8567257159273,  20.000111111214
       245,  -3.000000832212,  5.1961521269239,  20.00016666678 
       246,  -1.041889633252,  5.9088464976974,  20.00022222237 
       247,  1.0418885247133,  5.9088465299933,  20.000277777934
       248,  2.9999998230297,  5.1961521748657,  20.000333333506
       249,  4.5962657685417,  3.8567258641374,  20.000388889053
       250,  5.6381551488813,  2.0521201727031,  20.00044444457 
       251,  -5.638155808101,  2.0521209463915,  22.000050000067
       252,  -4.596266835921,  3.8567257227904,  22.000100000102
       253,  -3.000000920608,  5.1961520943579,  22.000150000113
       254,  -1.041889686389,  5.9088464962924,  22.000200000146
       255,  1.041888474289 ,  5.908846530532 ,  22.000250000155
       256,  2.9999998133153,  5.1961521454728,  22.000300000171
       257,  4.5962657167716,  3.8567258403498,  22.000350000162
       258,  5.6381550935594,  2.0521200977644,  22.000400000124
       259,  -5.63815580848 ,  2.0521209740348,  24.000044444509
       260,  -4.596266851518,  3.8567257292806,  24.000088888987
       261,  -3.00000101209 ,  5.1961520600103,  24.000133333443
       262,  -1.041889751619,  5.9088464927552,  24.000177777919
       263,  1.0418884139076,  5.9088465328265,  24.000222222372
       264,  2.9999998011071,  5.1961521175196,  24.000266666832
       265,  4.5962656653994,  3.8567258160879,  24.000311111269
       266,  5.6381550366905,  2.0521200270761,  24.000355555676
       267,  -5.638155809693,  2.0521209993855,  26.00003888895 
       268,  -4.596266866668,  3.8567257363031,  26.000077777871
       269,  -3.000001095071,  5.1961520305708,  26.00011666677 
       270,  -1.0418898042  ,  5.9088464914483,  26.00015555569 
       271,  1.041888374184 ,  5.9088465314784,  26.000194444587
       272,  2.9999997774866,  5.1961520961554,  26.00023333349 
       273,  4.5962656141398,  3.8567257916919,  26.000272222372
       274,  5.6381549844048,  2.0521199437954,  26.000311111226
       275,  -5.638155812343,  2.0521210207903,  28.00003333339 
       276,  -4.596266882303,  3.8567257427482,  28.000066666753
       277,  -3.000001178873,  5.1961520006571,  28.000100000096
       278,  -1.041889882845,  5.9088464855456,  28.000133333457
       279,  1.0418883250344,  5.9088465317924,  28.000166666798
       280,  2.9999997710723,  5.1961520648571,  28.000200000145
       281,  4.5962655626715,  3.8567257675445,  28.000233333472
       282,  5.6381549252632,  2.0521198793513,  28.000266666772
       283,  -5.638155812115,  2.0521210501034,  30.000027777828
       284,  -4.596266897528,  3.8567257496824,  30.000055555632
       285,  -3.00000126772 ,  5.1961519678306,  30.000083333419
       286,  -1.041889895616,  5.9088464912583,  30.000111111222
       287,  1.0418882897132,  5.908846529668 ,  30.000138889006
       288,  2.9999997636218,  5.1961520341571,  30.000166666796
       289,  4.5962655108796,  3.8567257437828,  30.000194444568
       290,  5.6381548699053,  2.0521198045114,  30.000222222317
       291,  -5.638155815556,  2.0521210693352,  32.000022222265
       292,  -4.596266912687,  3.8567257566939,  32.00004444451 
       293,  -3.000001328875,  5.1961519509926,  32.00006666674 
       294,  -1.041890005758,  5.9088464798017,  32.000088888983
       295,  1.0418882414519,  5.9088465298254,  32.000111111211
       296,  2.9999997383636,  5.1961520137383,  32.000133333444
       297,  4.5962654597375,  3.8567257192466,  32.000155555662
       298,  5.6381548149983,  2.0521197284327,  32.000177777858
       299,  -5.638155815044,  2.0521210994256,  34.000016666701
       300,  -4.596266928031,  3.8567257634858,  34.000033333386
       301,  -3.000001454875,  5.1961518967156,  34.000050000058
       302,  -1.041890027093,  5.9088464840043,  34.000066666742
       303,  1.0418881621777,  5.9088465354511,  34.000083333413
       304,  2.9999997342322,  5.196151981122 ,  34.000100000088
       305,  4.5962654085616,  3.8567256947508,  34.000116666752
       306,  5.6381547573783,  2.0521196598078,  34.000133333398
       307,  -5.638155816944,  2.0521211228892,  36.000011111135
       308,  -4.596266944257,  3.8567257692259,  36.000022222259
       309,  -3.00000152916 ,  5.1961518722968,  36.000033333374
       310,  -1.04189011166 ,  5.9088464770574,  36.000044444498
       311,  1.0418881123011,  5.9088465358932,  36.000055555612
       312,  2.9999996999613,  5.1961519659067,  36.000066666729
       313,  4.5962653571109,  3.8567256705824,  36.000077777838
       314,  5.6381546999658,  2.0521195906128,  36.000088888934
       315,  -5.638155818075,  2.0521211484693,  38.000005555568
       316,  -4.59626695904 ,  3.8567257766868,  38.000011111131
       317,  -3.000001597568,  5.1961518512709,  38.000016666688
       318,  -1.041890163516,  5.9088464758783,  38.00002222225 
       319,  1.0418880802881,  5.9088465331856,  38.000027777808
       320,  2.9999996880958,  5.1961519377556,  38.000033333366
       321,  4.596265305494 ,  3.856725646612 ,  38.000038888922
       322,  5.6381546462606,  2.0521195112321,  38.000044444468
       323,  5.6381403867668,  -2.052115314358,  2.000844443927 
       324,  4.5962531776269,  -3.856715093773,  2.0007388921194
       325,  2.9999834536007,  -5.196124656426,  2.0006333320131
       326,  1.0418811528633,  -5.908798278949,  2.0005277804051
       327,  -1.041883283463,  -5.908808341096,  2.0004222211094
       328,  -2.999965328436,  -5.196093061096,  2.0003166689683
       329,  -4.596253477295,  -3.856715136246,  2.0002111163055
       330,  -5.638096126676,  -2.052099359174,  2.0001055573444
       331,  5.6381251012087,  -2.052109663263,  4.000799999003 
       332,  4.5962401123013,  -3.856704057498,  4.0007000040191
       333,  2.9999669973206,  -5.19609687262 ,  4.0005999973911
       334,  1.0418732454764,  -5.908750064716,  4.0005000049452
       335,  -1.041877441036,  -5.908770232125,  4.0003999978288
       336,  -2.999930675682,  -5.196033694519,  4.0003000043201
       337,  -4.596240691174,  -3.856704195336,  4.0002000048178
       338,  -5.63803654961 ,  -2.052077802189,  4.0001000032531
       339,  5.638109829345 ,  -2.052104013   ,  6.0007555541892
       340,  4.5962270571458,  -3.856693032666,  6.0006611159189
       341,  2.999950575153 ,  -5.196069103659,  6.0005666630147
       342,  1.0418653065002,  -5.908701881988,  6.0004722294604
       343,  -1.041871554344,  -5.908732188481,  6.000377774958 
       344,  -2.999896034362,  -5.195974327235,  6.0002833398144
       345,  -4.596227928897,  -3.856693278088,  6.0001888936607
       346,  -5.63797697304 ,  -2.052056245263,  6.0000944494048
       347,  5.6380945712   ,  -2.052098363516,  8.0007111094227
       348,  4.5962140123761,  -3.856682019026,  8.0006222276927
       349,  2.9999341885517,  -5.196041348702,  8.0005333286946
       350,  1.0418573332278,  -5.908653731241,  8.0004444536985
       351,  -1.041865621691,  -5.908694210492,  8.0003555521815
       352,  -2.999861401216,  -5.195914961138,  8.0002666750732
       353,  -4.596215190154,  -3.85668238488 ,  8.0001777823928
       354,  -5.637917396766,  -2.052034688947,  8.0000888952948
       355,  5.6380793268584,  -2.052092714595,  10.000666664647
       356,  4.5962009777512,  -3.856671016872,  10.000583339341
       357,  2.9999178369403,  -5.196013608112,  10.000499994488
       358,  1.0418493283746,  -5.908605612042,  10.000416677774
       359,  -1.041859642234,  -5.908656298348,  10.00033332967 
       360,  -2.999826781379,  -5.195855593246,  10.000250010324
       361,  -4.596202475565,  -3.856671514988,  10.000166671298
       362,  -5.63785782133 ,  -2.052013131746,  10.000083341265
       363,  5.6380640962897,  -2.052087066334,  12.000622220143
       364,  4.596187953581 ,  -3.856660025839,  12.000544451093
       365,  2.9999015203179,  -5.195985881911,  12.000466660573
       366,  1.0418412910412,  -5.908557524564,  12.000388901812
       367,  -1.041853618539,  -5.908618451681,  12.000311107499
       368,  -2.999792169439,  -5.195796226708,  12.00023334559 
       369,  -4.596189784307,  -3.856660669407,  12.000155560349
       370,  -5.637798245567,  -2.051991576877,  12.000077787234
       371,  5.6380488795273,  -2.052081418657,  14.00057777562 
       372,  4.5961749396475,  -3.856649046196,  14.000505562695
       373,  2.9998852387775,  -5.195958170065,  14.000433326731
       374,  1.0418332233406,  -5.908509468475,  14.000361125631
       375,  -1.041847551469,  -5.908580670403,  14.000288885522
       376,  -2.999757569874,  -5.195736858934,  14.000216680761
       377,  -4.596177115862,  -3.856649848714,  14.000144449472
       378,  -5.637738670705,  -2.051970020958,  14.000072233166
       379,  5.6380336766192,  -2.052075771448,  16.000533331172
       380,  4.5961619360121,  -3.856638077873,  16.000466674227
       381,  2.9998689922185,  -5.195930472654,  16.000399993032
       382,  1.0418251189512,  -5.908461444856,  16.000333349291
       383,  -1.041841435064,  -5.90854295554 ,  16.000266663787
       384,  -2.999722980428,  -5.195677491231,  16.000200015874
       385,  -4.596164473631,  -3.856639049023,  16.000133338691
       386,  -5.637679095614,  -2.051948467104,  16.000066679073
       387,  5.638018488523 ,  -2.052070122002,  18.000488886802
       388,  4.5961489425756,  -3.856627120997,  18.000427785702
       389,  2.999852783201 ,  -5.195902788183,  18.000366659494
       390,  1.041816984203 ,  -5.90841345267 ,  18.000305572813
       391,  -1.04183527786 ,  -5.908505305749,  18.000244442321
       392,  -2.99968840139 ,  -5.195618123435,  18.000183350962
       393,  -4.59615185382 ,  -3.856628274715,  18.000122228046
       394,  -5.637619523036,  -2.051926907756,  18.000061125003
       395,  5.6380033120457,  -2.052064479368,  20.000444442531
       396,  4.5961359595744,  -3.856616175292,  20.00038889712 
       397,  2.9998366042649,  -5.195875121093,  20.0003333261  
       398,  1.0418088169922,  -5.90836549229 ,  20.000277796165
       399,  -1.041829073044,  -5.908467722195,  20.000222221077
       400,  -2.999653832664,  -5.195558755606,  20.000166685961
       401,  -4.596139258043,  -3.856617523932,  20.000111117456
       402,  -5.637559948707,  -2.051905354671,  20.000055570854
       403,  5.6379881504721,  -2.052058834275,  22.000399998351
       404,  4.5961229868036,  -3.856605241007,  22.00035000848 
       405,  2.9998204628993,  -5.195847466968,  22.000299992855
       406,  1.0418006173232,  -5.908317563739,  22.000250019357
       407,  -1.0418228229  ,  -5.908430204556,  22.000200000067
       408,  -2.999619274141,  -5.195499387809,  22.000150020888
       409,  -4.596126686015,  -3.856606797024,  22.000100006942
       410,  -5.637500375649,  -2.05188379952 ,  22.000050016656
       411,  5.6379730026938,  -2.052053189872,  24.000355554128
       412,  4.5961100243507,  -3.856594318046,  24.000311119674
       413,  2.9998043566092,  -5.195819827307,  24.000266659674
       414,  1.0417923851995,  -5.908269667037,  24.000222242327
       415,  -1.041816524026,  -5.908392753442,  24.000177779256
       416,  -2.999584726574,  -5.195440019614,  24.000133355732
       417,  -4.5961141378  ,  -3.85659609393 ,  24.000088896519
       418,  -5.637440802063,  -2.051862247265,  24.000044462446
       419,  5.6379578687882,  -2.052047545958,  26.000311110066
       420,  4.5960970721155,  -3.856583406534,  26.000272230873
       421,  2.9997882854087,  -5.195792202123,  26.0002333267  
       422,  1.0417841206262,  -5.908221802207,  26.00019446519 
       423,  -1.041810186664,  -5.908355367229,  26.000155558729
       424,  -2.999550189   ,  -5.195380651579,  26.000116690549
       425,  -4.596101613467,  -3.856585414579,  26.000077786212
       426,  -5.637381230868,  -2.051840689863,  26.00003890822 
       427,  5.6379427486301,  -2.052041902894,  28.000266666114
       428,  4.5960841303044,  -3.85657250623 ,  28.000233342034
       429,  2.9997722493175,  -5.195764591426,  28.000199993895
       430,  1.0417758193903,  -5.908173969975,  28.000166687915
       431,  -1.041803800589,  -5.908318047641,  28.000133338459
       432,  -2.999515661743,  -5.195321283521,  28.000100025319
       433,  -4.596089112901,  -3.856574759122,  28.000066676009
       434,  -5.637321659137,  -2.051819135377,  28.000033353973
       435,  5.6379276423284,  -2.052036260395,  30.000222222152
       436,  4.5960711987995,  -3.856561617283,  30.000194453058
       437,  2.9997562525178,  -5.19573699276 ,  30.000166661182
       438,  1.0417674941474,  -5.908126168246,  30.000138910443
       439,  -1.041797369223,  -5.908280794171,  30.000111118411
       440,  -2.999481141904,  -5.19526191714 ,  30.000083360025
       441,  -4.596076636214,  -3.856564127438,  30.000055565913
       442,  -5.637262085171,  -2.051797588474,  30.000027799729
       443,  5.637912549839 ,  -2.052030618597,  32.000177778332
       444,  4.5960582775485,  -3.85655073976 ,  32.000155564068
       445,  2.9997402825102,  -5.195709413548,  32.000133328653
       446,  1.0417591322506,  -5.908078399159,  32.000111132839
       447,  -1.041790888028,  -5.908243607613,  32.000088898618
       448,  -2.999446639925,  -5.195202546344,  32.000066694674
       449,  -4.596064183421,  -3.856553519522,  32.000044455901
       450,  -5.63720251706 ,  -2.051776026926,  32.000022245433
       451,  5.6378974711705,  -2.052024977491,  34.000133334533
       452,  4.5960453666264,  -3.856539873579,  34.000116674963
       453,  2.9997243579674,  -5.195681842845,  34.000099996228
       454,  1.0417507379211,  -5.908030662028,  34.000083355041
       455,  -1.041784365821,  -5.908206486576,  34.00006667904 
       456,  -2.999412148209,  -5.195143175564,  34.000050029245
       457,  -4.596051754542,  -3.856542935364,  34.000033345972
       458,  -5.637142945058,  -2.051754477515,  34.000016691107
       459,  5.6378824063597,  -2.052019336992,  36.000088894146
       460,  4.5960324660659,  -3.856529018706,  36.000077787344
       461,  2.9997084510528,  -5.195654296805,  36.000066663722
       462,  1.0417423111635,  -5.907982956876,  36.000055575084
       463,  -1.041777798351,  -5.908169431809,  36.000044455926
       464,  -2.99937765948 ,  -5.195083809057,  36.000033358202
       465,  -4.596039349478,  -3.856532375093,  36.000022228805
       466,  -5.637083375695,  -2.051732922295,  36.00001112764 
       467,  5.6378673553805,  -2.052013697183,  38.000044447509
       468,  4.5960195758146,  -3.856518175211,  38.000038896779
       469,  2.9996925954417,  -5.195626756006,  38.000033331926
       470,  1.0417338577054,  -5.907935282767,  38.000027798969
       471,  -1.041771191025,  -5.90813244248 ,  38.000022240496
       472,  -2.999343184948,  -5.195024440279,  38.00001669798 
       473,  -4.59602696829 ,  -3.856521838652,  38.000011126057
       474,  -5.63702380681 ,  -2.05171136721 ,  38.000005581919
       475,  -0.705397949456,  2.8459841724933,  2.0004134717691
       476,  -2.070746308769,  3.8077340266419,  2.0003496259574
       477,  -3.214512456158,  2.6919662831256,  2.0002717936538
       478,  -1.880633972339,  1.5723181183576,  2.0003402138003
       479,  -0.705395155659,  2.8459892673285,  4.0003907539917
       480,  -2.070744200857,  3.807736854096 ,  4.00033092938  
       481,  -3.214508806091,  2.6919700214415,  4.0002571752971
       482,  -1.88062807397 ,  1.5723257996006,  4.000321471099 
       483,  -0.705392361471,  2.8459943592923,  6.0003680362583
       484,  -2.070742092225,  3.8077396805873,  6.0003122328314
       485,  -3.214505156087,  2.6919737578541,  6.0002425569891
       486,  -1.880622175636,  1.5723334765041,  6.0003027284756
       487,  -0.705389567024,  2.8459994481412,  8.0003453184914
       488,  -2.070739984069,  3.8077425055411,  8.0002935362588
       489,  -3.214501506386,  2.6919774924424,  8.0002279386412
       490,  -1.880616277299,  1.5723411490822,  8.0002839857944
       491,  -0.705386772074,  2.8460045339328,  10.000322600738
       492,  -2.070737876293,  3.807745328099 ,  10.000274839695
       493,  -3.214497857019,  2.6919812249069,  10.000213320311
       494,  -1.880610379112,  1.5723488173677,  10.00026524314 
       495,  -0.705383975746,  2.8460096163428,  12.000299883007
       496,  -2.070735767513,  3.8077481490513,  12.000256143142
       497,  -3.214494207396,  2.6919849551534,  12.000198701993
       498,  -1.880604480258,  1.5723564808539,  12.000246500517
       499,  -0.705381177153,  2.846014696518 ,  14.000277165272
       500,  -2.070733656034,  3.8077509697264,  14.000237446585
       501,  -3.214490556812,  2.6919886843418,  14.000184083672
       502,  -1.880598580382,  1.5723641408079,  14.000227757889
       503,  -0.705378382817,  2.8460197724622,  16.00025444754 
       504,  -2.070731550606,  3.8077537867358,  16.00021875003 
       505,  -3.214486909253,  2.6919924099224,  16.000169465354
       506,  -1.88059268333 ,  1.5723717950887,  16.000209015268
       507,  -0.705375584556,  2.8460248477206,  18.00023172982 
       508,  -2.07072943815 ,  3.8077566057738,  18.00020005348 
       509,  -3.214483259051,  2.691996136109 ,  18.000154847045
       510,  -1.880586783988,  1.5723794473904,  18.000190272667
       511,  -0.70537278877 ,  2.846029917621 ,  20.0002090121  
       512,  -2.070727332679,  3.8077594196056,  20.000181356928
       513,  -3.214479611566,  2.6919998583578,  20.000140228731
       514,  -1.880580886551,  1.5723870933041,  20.000171530062
       515,  -0.705369990084,  2.8460349845815,  22.000186294379
       516,  -2.070725223766,  3.8077622323954,  22.000162660374
       517,  -3.214475963067,  2.6920035784204,  22.000125610414
       518,  -1.880574987766,  1.5723947347241,  22.000152787458
       519,  -0.705367194312,  2.8460400487228,  24.000163576655
       520,  -2.070723118593,  3.8077650430925,  24.000143963818
       521,  -3.2144723162  ,  2.6920072969098,  24.000110992098
       522,  -1.880569090627,  1.5724023721781,  24.000134044853
       523,  -0.705364393431,  2.8460451106436,  26.000140858944
       524,  -2.070721007254,  3.8077678541945,  26.000125267268
       525,  -3.214468667117,  2.6920110142452,  26.000096373788
       526,  -1.880563191208,  1.5724100059708,  26.000115302266
       527,  -0.705361594966,  2.8460501684163,  28.00011814124 
       528,  -2.070718900281,  3.8077706623437,  28.00010657072 
       529,  -3.214465020172,  2.6920147283661,  28.000081755483
       530,  -1.880557293367,  1.5724176343279,  28.00009655969 
       531,  -0.70535878731 ,  2.8460552234597,  30.000095423538
       532,  -2.070716783709,  3.8077734695347,  30.000087874174
       533,  -3.214461368672,  2.692018441447 ,  30.000067137181
       534,  -1.880551390114,  1.5724252586026,  30.00007781712 
       535,  -0.705355989436,  2.8460602774911,  32.000072705841
       536,  -2.070714674092,  3.8077762788176,  32.000069177628
       537,  -3.21445772174 ,  2.6920221534875,  32.000052518879
       538,  -1.880545493172,  1.5724328800355,  32.000059074556
       539,  -0.705353194339,  2.8460653243545,  34.000049988144
       540,  -2.070712575951,  3.8077790756409,  34.000050481081
       541,  -3.214454078242,  2.6920258603794,  34.000037900577
       542,  -1.880539597821,  1.5724404943597,  34.000040331993
       543,  -0.705350396137,  2.8460703720259,  36.000027269522
       544,  -2.070710467784,  3.8077818797644,  36.000031783866
       545,  -3.214450432336,  2.6920295676974,  36.000023281146
       546,  -1.880533701254,  1.5724481065676,  36.000021587692
       547,  -0.705347587735,  2.8460754162095,  38.00000455272 
       548,  -2.070708349737,  3.8077846838035,  38.000013087954
       549,  -3.214446781629,  2.6920332741453,  38.00000866391 
       550,  -1.880527798821,  1.572455714575 ,  38.0000028468  
       551,  -0.705380326025,  2.8460932611043,  40.0           
       552,  -2.07069392643 ,  3.8077505429084,  40.0           
       553,  -3.214434756192,  2.692012649613 ,  40.0           
       554,  -1.880567975117,  1.5724781234618,  40.0           
       555,  -3.107153134237,  -2.461197878305,  2.0002761608872
       556,  -4.068796572775,  -1.216040892596,  2.0001972605744
       557,  -3.107137177458,  -2.461178785127,  4.0002611822202
       558,  -4.06877223005 ,  -1.216025873766,  4.0001865151228
       559,  -3.107121227806,  -2.461159705612,  6.0002462037682
       560,  -4.068747889647,  -1.216010860886,  6.0001757698688
       561,  -3.107105284653,  -2.461140640064,  8.0002312251924
       562,  -4.068723551196,  -1.215995854021,  8.0001650244512
       563,  -3.107089348915,  -2.461121587765,  10.000216246706
       564,  -4.06869921529 ,  -1.215980852612,  10.000154279108
       565,  -3.107073419444,  -2.46110254993 ,  12.000201268305
       566,  -4.068674881033,  -1.215965858114,  12.000143533803
       567,  -3.107057496702,  -2.461083525646,  14.000186289915
       568,  -4.068650548861,  -1.215950868807,  14.000132788488
       569,  -3.10704158204 ,  -2.46106451491 ,  16.000171311561
       570,  -4.068626219587,  -1.215935886536,  16.00012204318 
       571,  -3.107025673686,  -2.461045517004,  18.000156333274
       572,  -4.068601892411,  -1.215920907244,  18.000111297912
       573,  -3.10700977244 ,  -2.461026534078,  20.000141354991
       574,  -4.068577567203,  -1.215905936702,  20.000100552614
       575,  -3.106993877887,  -2.461007564833,  22.000126376731
       576,  -4.068553244266,  -1.21589097163 ,  22.000089807306
       577,  -3.106977990264,  -2.460988609366,  24.000111398494
       578,  -4.068528923293,  -1.215876012898,  24.000079062005
       579,  -3.106962109766,  -2.460969667007,  26.000096420314
       580,  -4.068504604956,  -1.215861058283,  26.000068316722
       581,  -3.106946236232,  -2.460950739053,  28.000081442177
       582,  -4.068480288813,  -1.215846111007,  28.000057571451
       583,  -3.106930367639,  -2.460931825648,  30.000066464079
       584,  -4.068455972481,  -1.215831171711,  30.0000468262  
       585,  -3.106914508833,  -2.460912923902,  32.000051486012
       586,  -4.068431661951,  -1.215816233453,  32.000036080942
       587,  -3.106898656602,  -2.460894037355,  34.000036507966
       588,  -4.068407352309,  -1.215801305064,  34.000025335681
       589,  -3.106882811002,  -2.460875164403,  36.000021524925
       590,  -4.068383045348,  -1.215786380816,  36.000014585039
       591,  -3.10686697136 ,  -2.460856304739,  38.000006551742
       592,  -4.068358739386,  -1.215771462107,  38.000003844878
       593,  -3.106943506645,  -2.460885346039,  40.0           
       594,  -4.068399608592,  -1.215738128145,  40.0           
       595,  1.8776509959248,  3.4899861104502,  2.0005539492392
       596,  0.4834432607185,  4.2185527776303,  2.0004854768978
       597,  0.6134586304218,  1.9557297522525,  2.0004770475154
       598,  1.877651597523 ,  3.4899891566484,  4.0005232693454
       599,  0.4834440062175,  4.2185551821184,  4.00045906365  
       600,  0.6134610344482,  1.9557366554699,  4.0004501411294
       601,  1.8776522000834,  3.4899922006693,  6.0004925894694
       602,  0.4834447513098,  4.2185575852056,  6.0004326504178
       603,  0.6134634396389,  1.9557435543151,  6.0004232347942
       604,  1.8776528035859,  3.4899952425612,  8.0004619095769
       605,  0.483445496576 ,  4.2185599865051,  8.0004062371703
       606,  0.6134658460235,  1.9557504487632,  8.0003963284233
       607,  1.8776534072509,  3.4899982832508,  10.000431229687
       608,  0.4834462433862,  4.2185623866555,  10.000379823925
       609,  0.6134682533018,  1.9557573392263,  10.000369422066
       610,  1.8776540132578,  3.4900013211332,  12.000400549815
       611,  0.4834469917707,  4.2185647850142,  12.000353410692
       612,  0.6134706627371,  1.9557642247698,  12.000342515746
       613,  1.8776546202089,  3.4900043580199,  14.000369869938
       614,  0.4834477435654,  4.2185671821666,  14.000326997454
       615,  0.6134730740213,  1.9557711068136,  14.000315609419
       616,  1.8776552261941,  3.4900073919273,  16.000339190061
       617,  0.4834484882542,  4.2185695773778,  16.000300584217
       618,  0.6134754840239,  1.9557779835925,  16.000288703099
       619,  1.8776558331266,  3.4900104255718,  18.00030851019 
       620,  0.4834492366252,  4.2185719728809,  18.000274170982
       621,  0.6134778966886,  1.9557848577384,  18.000261796795
       622,  1.8776564411749,  3.4900134556945,  20.000277830321
       623,  0.4834499838291,  4.2185743648085,  20.000247757748
       624,  0.6134803093183,  1.9557917260091,  20.000234890495
       625,  1.8776570522856,  3.4900164833522,  22.000247150451
       626,  0.483450734803 ,  4.2185767554618,  22.000221344511
       627,  0.6134827249195,  1.9557985897316,  22.000207984197
       628,  1.877657661204 ,  3.4900195098602,  24.000216470574
       629,  0.4834514803714,  4.2185791451478,  24.00019493127 
       630,  0.6134851394414,  1.9558054496256,  24.000181077893
       631,  1.8776582708868,  3.490022536032 ,  26.000185790707
       632,  0.4834522350316,  4.2185815333495,  26.000168518034
       633,  0.6134875568624,  1.9558123058026,  26.000154171609
       634,  1.8776588842745,  3.4900255575888,  28.000155110844
       635,  0.4834529848734,  4.2185839190051,  28.000142104802
       636,  0.6134899751801,  1.9558191567063,  28.000127265339
       637,  1.8776595040542,  3.4900285772221,  30.000124430979
       638,  0.4834537497225,  4.2185863036826,  30.000115691566
       639,  0.613492400313 ,  1.9558260031522,  30.000100359068
       640,  1.8776601118701,  3.4900315984648,  32.000093751119
       641,  0.4834544957836,  4.2185886877562,  32.000089278333
       642,  0.6134948179763,  1.9558328473254,  32.00007345281 
       643,  1.8776607262843,  3.4900346138263,  34.000063071256
       644,  0.4834552416632,  4.218591070134 ,  34.000062865098
       645,  0.6134972376872,  1.9558396844344,  34.000046546551
       646,  1.8776613330214,  3.4900376332776,  36.00003239107 
       647,  0.4834559895313,  4.2185934520741,  36.000036451539
       648,  0.6134996564654,  1.9558465205489,  36.00001963936 
       649,  1.8776619535347,  3.4900406460196,  38.00000171153 
       650,  0.4834567528857,  4.2185958308486,  38.000010038618
       651,  0.6135020848772,  1.9558533505279,  37.999992734026
       652,  1.8776107056318,  3.49002524561  ,  40.0           
       653,  0.4834229815044,  4.2185647260689,  40.0           
       654,  0.6134403548099,  1.9558806046333,  40.0           
       655,  0.8778240011513,  -4.664031057594,  2.0005107283204
       656,  -0.483247426285,  -4.219678035342,  2.0004376107799
       657,  0.8778210112795,  -4.663995521382,  4.0004831683807
       658,  -0.483241997404,  -4.219645261247,  4.0004140236743
       659,  0.8778180190527,  -4.663960012046,  6.0004556085508
       660,  -0.483236556417,  -4.219612518347,  6.0003904367824
       661,  0.8778150239707,  -4.66392452979 ,  8.000428048595 
       662,  -0.483231102558,  -4.219579806966,  8.0003668498351
       663,  0.8778120268983,  -4.663889074309,  10.000400488623
       664,  -0.483225635907,  -4.219547126709,  10.000343262976
       665,  0.8778090275187,  -4.663853645937,  12.000372928748
       666,  -0.483220156617,  -4.219514478081,  12.000319676279
       667,  0.8778060263338,  -4.663818244177,  14.000345368804
       668,  -0.48321466526 ,  -4.219481860392,  14.000296089609
       669,  0.8778030213285,  -4.663782869898,  16.000317808844
       670,  -0.483209160911,  -4.21944927458 ,  16.000272503009
       671,  0.8778000147343,  -4.663747521941,  18.00029024889 
       672,  -0.483203644769,  -4.219416719372,  18.000248916505
       673,  0.8777970052175,  -4.66371220174 ,  20.000262688912
       674,  -0.483198115891,  -4.219384196389,  20.000225330056
       675,  0.877793993854 ,  -4.663676908389,  22.000235128916
       676,  -0.48319257402 ,  -4.219351704785,  22.000201743672
       677,  0.8777909804662,  -4.6636416421  ,  24.00020756885 
       678,  -0.483187018611,  -4.219319244751,  24.000178157318
       679,  0.8777879638762,  -4.663606402797,  26.000180008816
       680,  -0.483181452799,  -4.219286815816,  26.000154571074
       681,  0.8777849435132,  -4.663571190905,  28.000152448786
       682,  -0.483175873974,  -4.21925441876 ,  28.000130984917
       683,  0.8777819256544,  -4.663536005412,  30.000124888709
       684,  -0.4831702799  ,  -4.219222053238,  30.000107398809
       685,  0.8777789020615,  -4.66350084775 ,  32.000097328641
       686,  -0.483164674831,  -4.219189719135,  32.000083812788
       687,  0.8777758770443,  -4.66346571646 ,  34.000069768527
       688,  -0.483159057812,  -4.219157416322,  34.000060226812
       689,  0.8777728474174,  -4.663430613848,  36.000042206432
       690,  -0.48315342885 ,  -4.219125146139,  36.000036637913
       691,  0.8777698198307,  -4.663395536584,  38.000014648246
       692,  -0.48314778672 ,  -4.219092906247,  38.000013054991
       693,  0.8776870093866,  -4.663276130909,  40.0           
       694,  -0.48321253667 ,  -4.219043635796,  40.0           
       695,  1.8179295232952,  0.9479825438056,  2.0005294212054
       696,  -0.619681916746,  0.5172225409759,  2.0004074889006
       697,  0.6201558877792,  -0.51986628405 ,  2.0004713872678
       698,  1.8179304767393,  0.9479909634884,  4.0004983923736
       699,  -0.619676455437,  0.5172337120042,  4.0003845741836
       700,  0.6201591845184,  -0.519851975692,  4.0004443009929
       701,  1.817931432746 ,  0.9479993776137,  6.0004673635938
       702,  -0.619670993452,  0.5172448760875,  6.0003616595582
       703,  0.6201624841821,  -0.519837676552,  6.0004172148115
       704,  1.8179323913836,  0.9480077862984,  8.00043633478  
       705,  -0.619665530583,  0.5172560332025,  8.0003387448724
       706,  0.6201657870791,  -0.51982338664 ,  8.0003901285732
       707,  1.8179333523572,  0.9480161898954,  10.000405305977
       708,  -0.619660067209,  0.5172671836574,  10.000315830216
       709,  0.6201690927783,  -0.519809105582,  10.000363042359
       710,  1.8179343166726,  0.9480245874136,  12.000374277229
       711,  -0.619654602335,  0.5172783266378,  12.000292915612
       712,  0.6201724021881,  -0.519794834246,  12.000335956219
       713,  1.8179352837968,  0.948032980294 ,  14.000343248471
       714,  -0.619649136146,  0.5172894634223,  14.000270001001
       715,  0.6201757148446,  -0.519780571409,  14.000308870069
       716,  1.8179362521633,  0.9480413670694,  16.000312219723
       717,  -0.619643671167,  0.5173005923904,  16.000247086404
       718,  0.6201790293693,  -0.519766318375,  16.000281783934
       719,  1.8179372240583,  0.9480497494188,  18.000281190995
       720,  -0.619638204   ,  0.5173117161562,  18.000224171833
       721,  0.6201823478629,  -0.519752073346,  18.000254697831
       722,  1.8179381975488,  0.948058125545 ,  20.000250162276
       723,  -0.619632737274,  0.5173228314414,  20.000201257265
       724,  0.6201856684595,  -0.519737838582,  20.000227611737
       725,  1.8179391749098,  0.9480664958985,  22.000219133564
       726,  -0.61962726857 ,  0.5173339396506,  22.000178342704
       727,  0.6201889931546,  -0.519723613138,  22.000200525655
       728,  1.8179401535575,  0.9480748613753,  24.00018810484 
       729,  -0.619621800412,  0.5173450413204,  24.000155428139
       730,  0.6201923200842,  -0.519709396493,  24.000173439562
       731,  1.8179411358115,  0.9480832209994,  26.000157076146
       732,  -0.619616330215,  0.5173561364897,  26.000132513604
       733,  0.6201956507126,  -0.519695189112,  26.00014635351 
       734,  1.8179421202228,  0.9480915757848,  28.000126047471
       735,  -0.61961085994 ,  0.517367224072 ,  28.000109599089
       736,  0.6201989839499,  -0.519680990807,  28.000119267486
       737,  1.8179431109957,  0.9480999244245,  30.000095018794
       738,  -0.619605384426,  0.517378304566 ,  30.000086684581
       739,  0.6202023237987,  -0.51966680213 ,  30.000092181463
       740,  1.817944098861 ,  0.9481082687217,  32.000063990138
       741,  -0.619599914166,  0.517389379665 ,  32.000063770089
       742,  0.6202056619565,  -0.519652621646,  32.000065095468
       743,  1.8179450902179,  0.9481166065875,  34.00003296148 
       744,  -0.619594443125,  0.5174004458953,  34.000040855599
       745,  0.6202090037301,  -0.519638451186,  34.000038009474
       746,  1.8179460821953,  0.9481249407203,  36.000001932121
       747,  -0.619588971877,  0.517411506915 ,  36.000017939283
       748,  0.620212347367 ,  -0.519624289222,  36.000010921983
       749,  1.8179470823948,  0.9481332678484,  37.999970904194
       750,  -0.619583494411,  0.5174225605658,  37.999995026584
       751,  0.6202156984644,  -0.519610136806,  37.999983837499
       752,  1.8178535463224,  0.9481904499359,  40.0           
       753,  -0.619654524262,  0.5174613112183,  40.0           
       754,  0.6201154939472,  -0.519544658176,  40.0           
       755,  4.0693080267497,  1.2140456079061,  2.0005975919686
       756,  4.745295520807 ,  -0.050172803054,  2.0003833566222
       757,  4.06930689928  ,  1.2140493678756,  4.0005583368016
       758,  4.7452929053322,  -0.050168537902,  4.0003404106565
       759,  4.0693057741942,  1.2140531250259,  6.0005190816381
       760,  4.7452902932723,  -0.050164275594,  6.0002974646515
       761,  4.0693046513396,  1.214056879861 ,  8.0004798264619
       762,  4.7452876846109,  -0.05016001591 ,  8.0002545186378
       763,  4.069303530566 ,  1.214060632689 ,  10.000440571286
       764,  4.7452850792566,  -0.050155758684,  10.000211572622
       765,  4.0693024127905,  1.2140643818322,  12.000401316148
       766,  4.7452824776369,  -0.050151504653,  12.000168626662
       767,  4.0693012969313,  1.2140681301503,  14.000362061001
       768,  4.7452798792772,  -0.050147252586,  14.000125680693
       769,  4.0693001829732,  1.2140718751379,  16.00032280586 
       770,  4.7452772841323,  -0.050143003553,  16.000082734733
       771,  4.0692990721516,  1.214075617185 ,  18.00028355073 
       772,  4.7452746928954,  -0.050138756999,  18.000039788787
       773,  4.0692979621097,  1.2140793587637,  20.000244295614
       774,  4.7452721041458,  -0.050134513072,  19.999996842878
       775,  4.0692968557162,  1.2140830960047,  22.000205040495
       776,  4.7452695195532,  -0.050130272229,  21.999953896952
       777,  4.0692957505036,  1.2140868323921,  24.000165785363
       778,  4.7452669379084,  -0.050126033395,  23.999910951006
       779,  4.0692946494164,  1.2140905622592,  26.000126530253
       780,  4.7452643603984,  -0.050121798869,  25.999868005092
       781,  4.0692935483602,  1.2140942958088,  28.000087275158
       782,  4.7452617853835,  -0.050117564543,  27.99982505921 
       783,  4.0692924525084,  1.2140980234406,  30.000048020056
       784,  4.7452592152162,  -0.050113334284,  29.999782113313
       785,  4.0692913563629,  1.2141017486808,  32.000008764969
       786,  4.7452566470859,  -0.050109106682,  31.999739167441
       787,  4.0692902624129,  1.214105473406 ,  33.99996950988 
       788,  4.7452540824825,  -0.050104880934,  33.999696221568
       789,  4.0692891694568,  1.2141091963873,  35.99993025479 
       790,  4.7452515204781,  -0.05010065767 ,  35.999653275992
       791,  4.0692880827768,  1.2141129129624,  37.999890999753
       792,  4.7452489639296,  -0.050096438588,  37.999610329928
       793,  4.0692072643216,  1.2141538391379,  39.999999999752
       794,  4.7451304668466,  -0.05002592835 ,  39.999999999749
       795,  -4.745120071863,  0.0485213358736,  2.0001300484265
       796,  -4.745109829129,  0.048527988175 ,  4.0001229952846
       797,  -4.745099587434,  0.0485346375596,  6.0001159423394
       798,  -4.745089346518,  0.048541284373 ,  8.0001088892257
       799,  -4.745079106721,  0.0485479285525,  10.000101836193
       800,  -4.745068867578,  0.0485545695248,  12.000094783178
       801,  -4.745058629073,  0.0485612084395,  14.000087730158
       802,  -4.745048392446,  0.0485678432484,  16.000080677141
       803,  -4.745038155983,  0.0485744777981,  18.000073624163
       804,  -4.745027920856,  0.0485811077821,  20.000066571148
       805,  -4.745017686663,  0.0485877347562,  22.000059518118
       806,  -4.745007453298,  0.0485943595305,  24.000052465103
       807,  -4.744997220788,  0.0486009821558,  26.000045412096
       808,  -4.744986989614,  0.0486076009298,  28.000038359094
       809,  -4.744976757438,  0.0486142170278,  30.000031306117
       810,  -4.744966528721,  0.0486208314752,  32.000024253123
       811,  -4.744956300387,  0.0486274422707,  34.000017200129
       812,  -4.744946073134,  0.0486340507049,  36.000010142909
       813,  -4.744935845518,  0.0486406568589,  38.000003093809
       814,  -4.744962805115,  0.0486589429636,  40.0           
       815,  2.0706406817677,  -3.809039212186,  2.0005665993893
       816,  0.7055153052509,  -2.848001947761,  2.0004876599722
       817,  2.0706341705834,  -3.80901377559 ,  4.0005352964549
       818,  0.7055167295184,  -2.847978132507,  4.0004603777658
       819,  2.0706276717862,  -3.80898835679 ,  6.0005039936602
       820,  0.7055181619885,  -2.847954335483,  6.0004330957046
       821,  2.0706211858068,  -3.808962955597,  8.0004726908206
       822,  0.7055196031951,  -2.847930556757,  8.0004058135854
       823,  2.0706147126164,  -3.808937571925,  10.000441388009
       824,  0.705521052858 ,  -2.847906796003,  10.000378531509
       825,  2.0706082523177,  -3.808912206098,  12.000410085358
       826,  0.7055225113718,  -2.847883053842,  12.00035124956 
       827,  2.070601804882 ,  -3.808886857642,  14.000378782694
       828,  0.7055239783094,  -2.847859329435,  14.000323967608
       829,  2.0705953696132,  -3.808861527159,  16.000347480072
       830,  0.7055254533314,  -2.847835623715,  16.000296685695
       831,  2.0705889481385,  -3.808836213463,  18.000316177509
       832,  0.7055269372784,  -2.84781193532 ,  18.000269403839
       833,  2.0705825375653,  -3.808810918877,  20.000284874988
       834,  0.7055284288932,  -2.847788266246,  20.000242122014
       835,  2.0705761409013,  -3.808785641502,  22.00025357251 
       836,  0.70552992985  ,  -2.84776461532 ,  22.000214840224
       837,  2.0705697570189,  -3.808760381758,  24.000222270012
       838,  0.7055314393756,  -2.847740982527,  24.00018755843 
       839,  2.0705633855825,  -3.808735139868,  26.000190967608
       840,  0.7055329568983,  -2.847717368035,  26.000160276712
       841,  2.070557026418 ,  -3.808709915605,  28.000159665268
       842,  0.7055344827354,  -2.84769377179 ,  28.00013299505 
       843,  2.0705506835506,  -3.808684708362,  30.000128362932
       844,  0.7055360201866,  -2.847670193884,  30.000105713402
       845,  2.0705443490206,  -3.808659520416,  32.000097060669
       846,  0.7055375627124,  -2.847646634304,  32.000078431811
       847,  2.0705380306783,  -3.808634348228,  34.000065758417
       848,  0.7055391147916,  -2.847623092595,  34.000051150235
       849,  2.0705317189531,  -3.808609197295,  36.000034455318
       850,  0.7055406731327,  -2.847599570479,  36.000023866859
       851,  2.0705254269124,  -3.808584060958,  38.000003154096
       852,  0.7055422435524,  -2.847576065442,  37.999996587176
       853,  2.070371435854 ,  -3.80841138266 ,  40.0           
       854,  0.7054264613003,  -2.847480683664,  40.0           
       855,  1.8808144240355,  -1.574832176013,  2.0005342995301
       856,  3.2144131681819,  -2.693642193002,  2.0006122262996
       857,  4.1123485678948,  -1.372259445275,  2.0005999640379
       858,  2.9268401146256,  -0.193690071637,  2.0005633159321
       859,  1.8808134004914,  -1.57481643956 ,  4.0005030421821
       860,  3.214406295228 ,  -2.693626756923,  4.0005768454958
       861,  4.1123420218852,  -1.372250355142,  4.0005605633668
       862,  2.9268382720286,  -0.193680805606,  4.0005282280245
       863,  1.8808123832366,  -1.574800714512,  6.0004717849237
       864,  3.2143994315064,  -2.693611332533,  6.0005414647619
       865,  4.1123354836911,  -1.37224127075 ,  6.0005211627461
       866,  2.9268364341533,  -0.193671545953,  6.0004931401664
       867,  1.8808113725693,  -1.574785000791,  8.000440527615 
       868,  3.2143925772838,  -2.693595919661,  8.0005060839695
       869,  4.1123289534175,  -1.372232191938,  8.000481762112 
       870,  2.9268346010801,  -0.193662292466,  8.0004580522802
       871,  1.8808103682127,  -1.574769298138,  10.000409270318
       872,  3.2143857323845,  -2.693580518246,  10.000470703154
       873,  4.1123224309373,  -1.372223118523,  10.000442361471
       874,  2.9268327725959,  -0.19365304487 ,  10.000422964398
       875,  1.8808093707581,  -1.574753607242,  12.000378013125
       876,  3.2143788971507,  -2.693565128585,  12.000435322465
       877,  4.112315916617 ,  -1.372214051031,  12.000402960966
       878,  2.9268309494213,  -0.193643804135,  12.0003878766  
       879,  1.8808083797653,  -1.574737927076,  14.00034675591 
       880,  3.2143720713169,  -2.693549750165,  14.000399941724
       881,  4.112309410117 ,  -1.372204988634,  14.000363560438
       882,  2.9268291309615,  -0.19363456872 ,  14.000352788785
       883,  1.8808073945908,  -1.574722258694,  16.000315498715
       884,  3.2143652545775,  -2.693534383545,  16.000364560987
       885,  4.1123029113114,  -1.372195932041,  16.000324159935
       886,  2.9268273166164,  -0.193625340068,  16.000317700986
       887,  1.8808064165256,  -1.5747066008  ,  18.000284241552
       888,  3.2143584477893,  -2.693519027845,  18.000329180267
       889,  4.1122964210539,  -1.372186879959,  18.000284759467
       890,  2.9268255078198,  -0.193616116994,  18.000282613211
       891,  1.8808054439345,  -1.574690955113,  20.000252984408
       892,  3.2143516494515,  -2.693503684706,  20.00029379956 
       893,  4.1122899374311,  -1.372177835326,  20.000245359042
       894,  2.9268237025981,  -0.193606900516,  20.000247525457
       895,  1.8808044787197,  -1.5746753208  ,  22.000221727279
       896,  3.2143448612417,  -2.693488352893,  22.000258418858
       897,  4.1122834625795,  -1.37216879563 ,  22.000205958639
       898,  2.9268219032501,  -0.193597690644,  22.000212437714
       899,  1.8808035195479,  -1.574659697458,  24.000190470125
       900,  3.2143380823097,  -2.693473032455,  24.000223038094
       901,  4.1122769953526,  -1.37215976114 ,  24.0001665582  
       902,  2.9268201078966,  -0.19358848625 ,  24.00017734995 
       903,  1.8808025670764,  -1.574644085945,  26.000159213027
       904,  3.2143313128135,  -2.69345772401 ,  26.000187657389
       905,  4.112270536355 ,  -1.372150733064,  26.000127157837
       906,  2.9268183181699,  -0.193579289497,  26.00014226223 
       907,  1.8808016206027,  -1.574628485046,  28.000127955965
       908,  3.2143245524322,  -2.693442426579,  28.000152276711
       909,  4.1122640847648,  -1.372141709318,  28.000087757523
       910,  2.9268165322957,  -0.193570096787,  28.000107174542
       911,  1.8808006833909,  -1.574612895987,  30.000096698894
       912,  3.2143178033562,  -2.693427140882,  30.000116895994
       913,  4.1122576424662,  -1.372132691872,  30.000048357192
       914,  2.9268147539189,  -0.19356091162 ,  30.000072086844
       915,  1.8807997492215,  -1.574597318038,  32.000065441863
       916,  3.2143110614124,  -2.693411867146,  32.000081515316
       917,  4.1122512065396,  -1.372123680026,  32.000008956922
       918,  2.9268129770508,  -0.193551732306,  32.00003699918 
       919,  1.8807988223331,  -1.574581751258,  34.000034184828
       920,  3.2143043300722,  -2.693396604307,  34.000046134611
       921,  4.112244778933 ,  -1.372114673272,  33.999969556649
       922,  2.9268112054499,  -0.193542558812,  34.000001911515
       923,  1.8807979000859,  -1.574566196111,  36.000002926975
       924,  3.2142976058777,  -2.693381354073,  36.000010754095
       925,  4.1122383581168,  -1.372105672248,  35.99993015726 
       926,  2.926809437095 ,  -0.193533391021,  35.999966823669
       927,  1.8807969880375,  -1.574550652316,  37.999971670844
       928,  3.2142908942719,  -2.693366114802,  37.999975373334
       929,  4.1122319473192,  -1.372096677371,  37.999890756332
       930,  2.9268076773658,  -0.193524230943,  37.99993173628 
       931,  1.8806381747212,  -1.574433761622,  40.0           
       932,  3.2140364879237,  -2.693160895228,  39.999999999991
       933,  4.1119172726467,  -1.37190790724 ,  39.999999999753
       934,  2.9266479569612,  -0.193418777441,  39.999999999992
       935,  -1.817412876133,  -0.950660216981,  2.0003419689958
       936,  -2.926529664321,  0.1908986643425,  2.0002707132496
       937,  -1.817402655223,  -0.950644394631,  4.0003229967168
       938,  -2.926518076324,  0.1909095020193,  4.0002558008214
       939,  -1.817392435644,  -0.950628582158,  6.000304024582 
       940,  -2.926506489396,  0.1909203339585,  6.0002408885199
       941,  -1.81738221694 ,  -0.950612779633,  8.0002850523559
       942,  -2.926494903219,  0.1909311604064,  8.0002259761219
       943,  -1.817371999744,  -0.950596986642,  10.000266080182
       944,  -2.926483318242,  0.19094198143  ,  10.000211063771
       945,  -1.81736178306 ,  -0.950581204134,  12.000247108075
       946,  -2.926471733664,  0.190952796233 ,  12.000196151457
       947,  -1.817351567224,  -0.950565430906,  14.000228135966
       948,  -2.926460149474,  0.1909636062948,  14.000181239139
       949,  -1.81734135396 ,  -0.950549668223,  16.000209163877
       950,  -2.926448567979,  0.190974409236 ,  16.00016632683 
       951,  -1.817331140852,  -0.950533913765,  18.00019019183 
       952,  -2.926436986031,  0.1909852094213,  18.00015141455 
       953,  -1.817320929645,  -0.950518170722,  20.000171219785
       954,  -2.926425405979,  0.1909960017509,  20.00013650226 
       955,  -1.817310718933,  -0.950502437646,  22.000152247751
       956,  -2.926413826359,  0.1910067882121,  22.000121589968
       957,  -1.817300509883,  -0.950486714161,  24.000133275721
       958,  -2.926402248137,  0.191017569643 ,  24.00010667768 
       959,  -1.817290301549,  -0.950471000066,  26.000114303732
       960,  -2.926390670115,  0.1910283461893,  26.000091765413
       961,  -1.817280094804,  -0.950455296552,  28.000095331771
       962,  -2.926379093828,  0.191039115871 ,  28.00007685316 
       963,  -1.817269885935,  -0.950439603253,  30.000076359827
       964,  -2.926367514862,  0.1910498799684,  30.00006194092 
       965,  -1.817259682572,  -0.950423918255,  32.000057387904
       966,  -2.926355941391,  0.1910606400371,  32.000047028684
       967,  -1.817249480141,  -0.950408244553,  34.000038415989
       968,  -2.926344368767,  0.1910713927953,  34.00003211645 
       969,  -1.817239279011,  -0.95039258012 ,  36.000019440935
       970,  -2.926332796957,  0.1910821409346,  36.000017201157
       971,  -1.817229075962,  -0.950376925304,  38.000000472076
       972,  -2.926321222855,  0.1910928838957,  38.000002291841
       973,  -1.817299274034,  -0.95035820782 ,  40.0           
       974,  -2.92636689258 ,  0.1911274162672,  40.0           
       975,  3.1076960707859,  2.4594298606523,  2.0006057689106
       976,  3.1076960826287,  2.4594333714726,  4.0005707463272
       977,  3.1076960959568,  2.4594368798127,  6.0005357237593
       978,  3.1076961106355,  2.4594403859586,  8.0005007011759
       979,  3.1076961264102,  2.4594438902662,  10.000465678594
       980,  3.1076961444122,  2.4594473915402,  12.000430656039
       981,  3.1076961638654,  2.4594508913536,  14.000395633476
       982,  3.1076961836883,  2.4594543883721,  16.000360610917
       983,  3.1076962054478,  2.4594578836658,  18.000325588365
       984,  3.1076962280301,  2.4594613765914,  20.000290565818
       985,  3.1076962531648,  2.4594648666829,  22.000255543271
       986,  3.1076962783923,  2.459468355146 ,  24.000220520716
       987,  3.1076963058018,  2.4594718405985,  26.000185498173
       988,  3.1076963345683,  2.4594753248738,  28.00015047564 
       989,  3.1076963678033,  2.459478805961 ,  30.000115453103
       990,  3.1076963972497,  2.4594822857753,  32.000080430574
       991,  3.1076964297552,  2.459485762577 ,  34.000045408043
       992,  3.1076964606263,  2.4594892393653,  36.000010385288
       993,  3.1076964986012,  2.4594927113426,  37.999975362999
       994,  3.1076306985827,  2.4594991129434,  39.99999999999 
       995,  -4.112427258505,  1.3702772359127,  2.0001953914427
       996,  -4.112420996154,  1.3702821153441,  4.0001847929309
       997,  -4.112414734555,  1.3702869920002,  6.000174194509 
       998,  -4.112408473301,  1.3702918669873,  8.000163596012 
       999,  -4.11240221281 ,  1.3702967395591,  10.00015299755 
      1000,  -4.112395952585,  1.370301609448 ,  12.000142399103
      1001,  -4.112389692148,  1.3703064783841,  14.000131800653
      1002,  -4.1123834344  ,  1.3703113420739,  16.000121202205
      1003,  -4.112377175004,  1.3703162079799,  18.000110603776
      1004,  -4.112370917604,  1.3703210689788,  20.000100005332
      1005,  -4.112364660684,  1.3703259264453,  22.000089406883
      1006,  -4.112358404246,  1.3703307836847,  24.000078808439
      1007,  -4.112352147688,  1.3703356386081,  26.000068210002
      1008,  -4.112345892896,  1.370340489366 ,  28.00005761157 
      1009,  -4.112339635241,  1.370345340097 ,  30.000047013148
      1010,  -4.112333382133,  1.3703501869334,  32.000036414722
      1011,  -4.112327129217,  1.3703550327311,  34.000025816295
      1012,  -4.112320876855,  1.3703598756139,  36.00001521581 
      1013,  -4.11231462233 ,  1.3703647172018,  38.000004619306
      1014,  -4.112314896233,  1.3703616856004,  40.0           
      1015,  -0.613000725944,  -1.958121426319,  2.0004136651003
      1016,  -1.877198667864,  -3.491451400741,  2.000357490559 
      1017,  -0.612992904608,  -1.958099552149,  4.0003905705812
      1018,  -1.877182518291,  -3.491417971351,  4.0003381698444
      1019,  -0.61298508112 ,  -1.958077690917,  6.0003674762033
      1020,  -1.877166369847,  -3.49138455632 ,  6.00031884931  
      1021,  -0.612977254823,  -1.958055842832,  8.0003443817422
      1022,  -1.877150221197,  -3.491351156335,  8.00029952865  
      1023,  -0.612969426487,  -1.958034007323,  10.000321287324
      1024,  -1.877134074077,  -3.491317770232,  10.000280208044
      1025,  -0.612961595072,  -1.958012185365,  12.000298192996
      1026,  -1.877117926624,  -3.491284399466,  12.000260887526
      1027,  -0.61295376127 ,  -1.957990375809,  14.00027509866 
      1028,  -1.877101780387,  -3.491251042707,  14.000241566993
      1029,  -0.612945925876,  -1.95796857974 ,  16.000252004347
      1030,  -1.877085635097,  -3.49121770079 ,  16.000222246477
      1031,  -0.612938087444,  -1.957946795541,  18.000228910078
      1032,  -1.877069490332,  -3.491184372749,  18.000202926007
      1033,  -0.612930247254,  -1.957925025471,  20.000205815819
      1034,  -1.877053346345,  -3.491151060139,  20.000183605532
      1035,  -0.612922403912,  -1.957903268431,  22.000182721576
      1036,  -1.877037202614,  -3.491117762146,  22.000164285065
      1037,  -0.612914558441,  -1.957881524171,  24.000159627328
      1038,  -1.877021059466,  -3.491084478682,  24.00014496459 
      1039,  -0.61290671053 ,  -1.957859792754,  26.000136533132
      1040,  -1.877004917462,  -3.491051209591,  26.000125644163
      1041,  -0.612898860444,  -1.957838074586,  28.000113438971
      1042,  -1.876988776025,  -3.491017955496,  28.000106323766
      1043,  -0.612891004779,  -1.957816369822,  30.000090344821
      1044,  -1.876972632549,  -3.490984716775,  30.000087003378
      1045,  -0.612883150798,  -1.957794676954,  32.000067250702
      1046,  -1.876956493656,  -3.49095149077 ,  32.000067683013
      1047,  -0.612875293927,  -1.957772997692,  34.00004415659 
      1048,  -1.876940355348,  -3.490918279905,  34.000048362647
      1049,  -0.612867435086,  -1.957751331806,  36.000021059834
      1050,  -1.876924215968,  -3.490885085109,  36.000029038189
      1051,  -0.612859571052,  -1.95772967836 ,  37.999997968343
      1052,  -1.876908077155,  -3.490851903804,  38.000009721804
      1053,  -0.612946831189,  -1.957676293611,  40.0           
      1054,  -1.876961175696,  -3.490826356601,  40.0           
      1055,  -0.877796249574,  4.6632275789816,  2.0004190435892
      1056,  -0.877795323392,  4.6632292611909,  4.0003966043537
      1057,  -0.877794398356,  4.6632309424377,  6.0003741651317
      1058,  -0.877793476302,  4.6632326221147,  8.0003517258958
      1059,  -0.877792549375,  4.6632343014461,  10.000329286663
      1060,  -0.877791620692,  4.663235979849 ,  12.000306847436
      1061,  -0.877790689264,  4.6632376579291,  14.000284408205
      1062,  -0.877789768612,  4.6632393330587,  16.000261968974
      1063,  -0.877788837295,  4.6632410102607,  18.000239529744
      1064,  -0.877787916933,  4.6632426831285,  20.000217090513
      1065,  -0.877786988136,  4.6632443563316,  22.000194651279
      1066,  -0.877786066439,  4.6632460278494,  24.000172212043
      1067,  -0.877785135438,  4.663247699796 ,  26.000149772809
      1068,  -0.877784216206,  4.6632493684197,  28.000127333575
      1069,  -0.877783266805,  4.6632510403168,  30.00010489434 
      1070,  -0.877782358482,  4.6632527070317,  32.000082455105
      1071,  -0.87778142445 ,  4.6632543742858,  34.000060015868
      1072,  -0.877780507503,  4.6632560401663,  36.000037576304
      1073,  -0.877779571186,  4.6632577069246,  38.000015137376
      1074,  -0.877778288481,  4.6631951120259,  40.0           
      1075,  -5.637045463799,  -2.051718327487,  42.0           
      1076,  -6.77527907016 ,  -3.878193295043,  42.0           
      1077,  -6.179285781923,  -5.254865892932,  42.0           
      1078,  -4.596118877139,  -3.856600613941,  42.0           
      1079,  -5.637045463799,  -2.051718327487,  44.0           
      1080,  -6.77527907016 ,  -3.878193295043,  44.0           
      1081,  -6.179285781923,  -5.254865892932,  44.0           
      1082,  -4.596118877139,  -3.856600613941,  44.0           
      1083,  -5.637045463799,  -2.051718327487,  46.0           
      1084,  -6.77527907016 ,  -3.878193295043,  46.0           
      1085,  -6.179285781923,  -5.254865892932,  46.0           
      1086,  -4.596118877139,  -3.856600613941,  46.0           
      1087,  -5.637045463799,  -2.051718327487,  48.0           
      1088,  -6.77527907016 ,  -3.878193295043,  48.0           
      1089,  -6.179285781923,  -5.254865892932,  48.0           
      1090,  -4.596118877139,  -3.856600613941,  48.0           
      1091,  -5.637045463799,  -2.051718327487,  50.0           
      1092,  -6.77527907016 ,  -3.878193295043,  50.0           
      1093,  -6.179285781923,  -5.254865892932,  50.0           
      1094,  -4.596118877139,  -3.856600613941,  50.0           
      1095,  -5.022496614868,  -6.362906464718,  42.0           
      1096,  -8.412266243212,  -6.636911289758,  42.0           
      1097,  -6.757074786309,  -7.618769194294,  42.0           
      1098,  -5.022496614868,  -6.362906464718,  44.0           
      1099,  -8.412266243212,  -6.636911289758,  44.0           
      1100,  -6.757074786309,  -7.618769194294,  44.0           
      1101,  -5.022496614868,  -6.362906464718,  46.0           
      1102,  -8.412266243212,  -6.636911289758,  46.0           
      1103,  -6.757074786309,  -7.618769194294,  46.0           
      1104,  -5.022496614868,  -6.362906464718,  48.0           
      1105,  -8.412266243212,  -6.636911289758,  48.0           
      1106,  -6.757074786309,  -7.618769194294,  48.0           
      1107,  -5.022496614868,  -6.362906464718,  50.0           
      1108,  -8.412266243212,  -6.636911289758,  50.0           
      1109,  -6.757074786309,  -7.618769194294,  50.0           
      1110,  -2.979340362588,  7.5380977973842,  42.0           
      1111,  -1.431873075912,  7.9839439755322,  42.0           
      1112,  -1.541600657988,  10.6036919149  ,  42.0           
      1113,  -3.219510274674,  9.6611830173623,  42.0           
      1114,  -2.979340362588,  7.5380977973842,  44.0           
      1115,  -1.431873075912,  7.9839439755322,  44.0           
      1116,  -1.541600657988,  10.6036919149  ,  44.0           
      1117,  -3.219510274674,  9.6611830173623,  44.0           
      1118,  -2.979340362588,  7.5380977973842,  46.0           
      1119,  -1.431873075912,  7.9839439755322,  46.0           
      1120,  -1.541600657988,  10.6036919149  ,  46.0           
      1121,  -3.219510274674,  9.6611830173623,  46.0           
      1122,  -2.979340362588,  7.5380977973842,  48.0           
      1123,  -1.431873075912,  7.9839439755322,  48.0           
      1124,  -1.541600657988,  10.6036919149  ,  48.0           
      1125,  -3.219510274674,  9.6611830173623,  48.0           
      1126,  -2.979340362588,  7.5380977973842,  50.0           
      1127,  -1.431873075912,  7.9839439755322,  50.0           
      1128,  -1.541600657988,  10.6036919149  ,  50.0           
      1129,  -3.219510274674,  9.6611830173623,  50.0           
      1130,  -8.297702485486,  -4.070306200661,  42.0           
      1131,  -8.297702485486,  -4.070306200661,  44.0           
      1132,  -8.297702485486,  -4.070306200661,  46.0           
      1133,  -8.297702485486,  -4.070306200661,  48.0           
      1134,  -8.297702485486,  -4.070306200661,  50.0           
      1135,  2.3194817158497,  7.851930732484 ,  42.0           
      1136,  4.0710835816903,  6.8026851832243,  42.0           
      1137,  5.1018833294064,  8.6006270988298,  42.0           
      1138,  3.4466918725034,  9.5824850033654,  42.0           
      1139,  2.3194817158497,  7.851930732484 ,  44.0           
      1140,  4.0710835816903,  6.8026851832243,  44.0           
      1141,  5.1018833294064,  8.6006270988298,  44.0           
      1142,  3.4466918725034,  9.5824850033654,  44.0           
      1143,  2.3194817158497,  7.851930732484 ,  46.0           
      1144,  4.0710835816903,  6.8026851832243,  46.0           
      1145,  5.1018833294064,  8.6006270988298,  46.0           
      1146,  3.4466918725034,  9.5824850033654,  46.0           
      1147,  2.3194817158497,  7.851930732484 ,  48.0           
      1148,  4.0710835816903,  6.8026851832243,  48.0           
      1149,  5.1018833294064,  8.6006270988298,  48.0           
      1150,  3.4466918725034,  9.5824850033654,  48.0           
      1151,  2.3194817158497,  7.851930732484 ,  50.0           
      1152,  4.0710835816903,  6.8026851832243,  50.0           
      1153,  5.1018833294064,  8.6006270988298,  50.0           
      1154,  3.4466918725034,  9.5824850033654,  50.0           
      1155,  -7.712651042198,  2.2420474949315,  42.0           
      1156,  -7.274112718337,  4.5073553762892,  42.0           
      1157,  -9.953866901201,  3.9667806251409,  42.0           
      1158,  -9.976585060984,  2.0424138230681,  42.0           
      1159,  -7.712651042198,  2.2420474949315,  44.0           
      1160,  -7.274112718337,  4.5073553762892,  44.0           
      1161,  -9.953866901201,  3.9667806251409,  44.0           
      1162,  -9.976585060984,  2.0424138230682,  44.0           
      1163,  -7.712651042198,  2.2420474949315,  46.0           
      1164,  -7.274112718337,  4.5073553762892,  46.0           
      1165,  -9.953866901201,  3.9667806251409,  46.0           
      1166,  -9.976585060984,  2.0424138230681,  46.0           
      1167,  -7.712651042198,  2.2420474949315,  48.0           
      1168,  -7.274112718337,  4.5073553762892,  48.0           
      1169,  -9.953866901201,  3.9667806251409,  48.0           
      1170,  -9.976585060984,  2.0424138230681,  48.0           
      1171,  -7.712651042198,  2.2420474949315,  50.0           
      1172,  -7.274112718337,  4.5073553762892,  50.0           
      1173,  -9.953866901201,  3.9667806251409,  50.0           
      1174,  -9.976585060984,  2.0424138230681,  50.0           
      1175,  0.0465709428795,  7.8076162599024,  42.0           
      1176,  0.6388829985375,  9.2231049306972,  42.0           
      1177,  0.0465709428795,  7.8076162599024,  44.0           
      1178,  0.6388829985375,  9.2231049306972,  44.0           
      1179,  0.0465709428795,  7.8076162599024,  46.0           
      1180,  0.6388829985375,  9.2231049306972,  46.0           
      1181,  0.0465709428795,  7.8076162599024,  48.0           
      1182,  0.6388829985375,  9.2231049306972,  48.0           
      1183,  0.0465709428795,  7.8076162599024,  50.0           
      1184,  0.6388829985375,  9.2231049306972,  50.0           
      1185,  4.5956333305659,  -3.856185117786,  42.0           
      1186,  5.6411182759952,  -5.933855716928,  42.0           
      1187,  7.6683388878985,  -5.164498595483,  42.0           
      1188,  6.7381022229005,  -3.943757327258,  42.0           
      1189,  4.5956333305659,  -3.856185117786,  44.0           
      1190,  5.6411182759952,  -5.933855716928,  44.0           
      1191,  7.6683388878985,  -5.164498595483,  44.0           
      1192,  6.7381022229005,  -3.943757327258,  44.0           
      1193,  4.5956333305659,  -3.856185117786,  46.0           
      1194,  5.6411182759952,  -5.933855716928,  46.0           
      1195,  7.6683388878985,  -5.164498595483,  46.0           
      1196,  6.7381022229005,  -3.943757327258,  46.0           
      1197,  4.5956333305659,  -3.856185117786,  48.0           
      1198,  5.6411182759952,  -5.933855716928,  48.0           
      1199,  7.6683388878985,  -5.164498595483,  48.0           
      1200,  6.7381022229005,  -3.943757327258,  48.0           
      1201,  4.5956333305659,  -3.856185117786,  50.0           
      1202,  5.6411182759952,  -5.933855716928,  50.0           
      1203,  7.6683388878985,  -5.164498595483,  50.0           
      1204,  6.7381022229005,  -3.943757327258,  50.0           
      1205,  -7.957416954637,  -1.93784947233 ,  42.0           
      1206,  -7.957416954637,  -1.93784947233 ,  44.0           
      1207,  -7.957416954637,  -1.93784947233 ,  46.0           
      1208,  -7.957416954637,  -1.93784947233 ,  48.0           
      1209,  -7.957416954637,  -1.93784947233 ,  50.0           
      1210,  -10.02202138055,  -1.806319781077,  42.0           
      1211,  -10.04473954033,  -3.73068658315 ,  42.0           
      1212,  -10.02202138055,  -1.806319781077,  44.0           
      1213,  -10.04473954033,  -3.73068658315 ,  44.0           
      1214,  -10.02202138055,  -1.806319781077,  46.0           
      1215,  -10.04473954033,  -3.73068658315 ,  46.0           
      1216,  -10.02202138055,  -1.806319781077,  48.0           
      1217,  -10.04473954033,  -3.73068658315 ,  48.0           
      1218,  -10.02202138055,  -1.806319781077,  50.0           
      1219,  -10.04473954033,  -3.73068658315 ,  50.0           
      1220,  5.8064303726318,  5.5514228742502,  42.0           
      1221,  7.5436868027385,  4.0427694996571,  42.0           
      1222,  8.4122662432124,  6.6369112897586,  42.0           
      1223,  6.7570747863094,  7.6187691942942,  42.0           
      1224,  5.8064303726318,  5.5514228742502,  44.0           
      1225,  7.5436868027385,  4.0427694996571,  44.0           
      1226,  8.4122662432124,  6.6369112897586,  44.0           
      1227,  6.7570747863094,  7.6187691942942,  44.0           
      1228,  5.8064303726318,  5.5514228742502,  46.0           
      1229,  7.5436868027385,  4.0427694996571,  46.0           
      1230,  8.4122662432124,  6.6369112897586,  46.0           
      1231,  6.7570747863094,  7.6187691942942,  46.0           
      1232,  5.8064303726318,  5.5514228742502,  48.0           
      1233,  7.5436868027385,  4.0427694996571,  48.0           
      1234,  8.4122662432124,  6.6369112897586,  48.0           
      1235,  6.7570747863094,  7.6187691942942,  48.0           
      1236,  5.8064303726318,  5.5514228742502,  50.0           
      1237,  7.5436868027385,  4.0427694996571,  50.0           
      1238,  8.4122662432124,  6.6369112897586,  50.0           
      1239,  6.7570747863094,  7.6187691942942,  50.0           
      1240,  9.9538669012008,  -3.966780625141,  42.0           
      1241,  8.253239124732 ,  -6.833656324751,  42.0           
      1242,  9.9311487414179,  -5.891147427214,  42.0           
      1243,  9.9538669012008,  -3.966780625141,  44.0           
      1244,  8.253239124732 ,  -6.833656324751,  44.0           
      1245,  9.9311487414179,  -5.891147427214,  44.0           
      1246,  9.9538669012008,  -3.966780625141,  46.0           
      1247,  8.253239124732 ,  -6.833656324751,  46.0           
      1248,  9.9311487414179,  -5.891147427214,  46.0           
      1249,  9.9538669012008,  -3.966780625141,  48.0           
      1250,  8.253239124732 ,  -6.833656324751,  48.0           
      1251,  9.9311487414179,  -5.891147427214,  48.0           
      1252,  9.9538669012008,  -3.966780625141,  50.0           
      1253,  8.253239124732 ,  -6.833656324751,  50.0           
      1254,  9.9311487414179,  -5.891147427214,  50.0           
      1255,  -3.0           ,  5.1961524227066,  42.0           
      1256,  -4.414310759501,  7.3805263864002,  42.0           
      1257,  -5.464894415997,  6.0107624518083,  42.0           
      1258,  -3.0           ,  5.1961524227066,  44.0           
      1259,  -4.414310759501,  7.3805263864002,  44.0           
      1260,  -5.464894415997,  6.0107624518083,  44.0           
      1261,  -3.0           ,  5.1961524227066,  46.0           
      1262,  -4.414310759501,  7.3805263864002,  46.0           
      1263,  -5.464894415997,  6.0107624518083,  46.0           
      1264,  -3.0           ,  5.1961524227066,  48.0           
      1265,  -4.414310759501,  7.3805263864002,  48.0           
      1266,  -5.464894415997,  6.0107624518083,  48.0           
      1267,  -3.0           ,  5.1961524227066,  50.0           
      1268,  -4.414310759501,  7.3805263864002,  50.0           
      1269,  -5.464894415997,  6.0107624518083,  50.0           
      1270,  -7.927489822694,  0.1113352114046,  42.0           
      1271,  -9.999303220767,  0.1180470209954,  42.0           
      1272,  -7.927489822694,  0.1113352114046,  44.0           
      1273,  -9.999303220767,  0.1180470209954,  44.0           
      1274,  -7.927489822694,  0.1113352114046,  46.0           
      1275,  -9.999303220767,  0.1180470209954,  46.0           
      1276,  -7.927489822694,  0.1113352114046,  48.0           
      1277,  -9.999303220767,  0.1180470209954,  48.0           
      1278,  -7.927489822694,  0.1113352114046,  50.0           
      1279,  -9.999303220767,  0.1180470209954,  50.0           
      1280,  1.7915004156004,  10.564342907901,  42.0           
      1281,  0.1363089586974,  11.546200812437,  42.0           
      1282,  1.7915004156004,  10.564342907901,  44.0           
      1283,  0.1363089586974,  11.546200812437,  44.0           
      1284,  1.7915004156004,  10.564342907901,  46.0           
      1285,  0.1363089586974,  11.546200812437,  46.0           
      1286,  1.7915004156004,  10.564342907901,  48.0           
      1287,  0.1363089586974,  11.546200812437,  48.0           
      1288,  1.7915004156004,  10.564342907901,  50.0           
      1289,  0.1363089586974,  11.546200812437,  50.0           
      1290,  4.5962666587138,  3.8567256581193,  42.0           
      1291,  5.6381557247155,  2.052120859954 ,  42.0           
      1292,  4.5962666587138,  3.8567256581193,  44.0           
      1293,  5.6381557247155,  2.052120859954 ,  44.0           
      1294,  4.5962666587138,  3.8567256581193,  46.0           
      1295,  5.6381557247155,  2.052120859954 ,  46.0           
      1296,  4.5962666587138,  3.8567256581193,  48.0           
      1297,  5.6381557247155,  2.052120859954 ,  48.0           
      1298,  4.5962666587138,  3.8567256581193,  50.0           
      1299,  5.6381557247155,  2.052120859954 ,  50.0           
      1300,  3.0            ,  5.1961524227066,  42.0           
      1301,  3.0            ,  5.1961524227066,  44.0           
      1302,  3.0            ,  5.1961524227066,  46.0           
      1303,  3.0            ,  5.1961524227066,  48.0           
      1304,  3.0            ,  5.1961524227066,  50.0           
      1305,  1.0418890660015,  5.9088465180733,  42.0           
      1306,  1.0418890660015,  5.9088465180733,  44.0           
      1307,  1.0418890660015,  5.9088465180733,  46.0           
      1308,  1.0418890660015,  5.9088465180733,  48.0           
      1309,  1.0418890660015,  5.9088465180733,  50.0           
      1310,  -1.041772581775,  -5.908149918207,  42.0           
      1311,  -2.999377254773,  -5.19508281402 ,  42.0           
      1312,  -2.457342449882,  -7.744410949817,  42.0           
      1313,  -0.25880976882 ,  -8.55632718943 ,  42.0           
      1314,  -1.041772581775,  -5.908149918207,  44.0           
      1315,  -2.999377254773,  -5.19508281402 ,  44.0           
      1316,  -2.457342449882,  -7.744410949817,  44.0           
      1317,  -0.25880976882 ,  -8.55632718943 ,  44.0           
      1318,  -1.041772581775,  -5.908149918207,  46.0           
      1319,  -2.999377254773,  -5.19508281402 ,  46.0           
      1320,  -2.457342449882,  -7.744410949817,  46.0           
      1321,  -0.25880976882 ,  -8.55632718943 ,  46.0           
      1322,  -1.041772581775,  -5.908149918207,  48.0           
      1323,  -2.999377254773,  -5.19508281402 ,  48.0           
      1324,  -2.457342449882,  -7.744410949817,  48.0           
      1325,  -0.25880976882 ,  -8.55632718943 ,  48.0           
      1326,  -1.041772581775,  -5.908149918207,  50.0           
      1327,  -2.999377254773,  -5.19508281402 ,  50.0           
      1328,  -2.457342449882,  -7.744410949817,  50.0           
      1329,  -0.25880976882 ,  -8.55632718943 ,  50.0           
      1330,  6.5753295080462,  -7.776165222288,  42.0           
      1331,  6.5753295080462,  -7.776165222288,  44.0           
      1332,  6.5753295080462,  -7.776165222288,  46.0           
      1333,  6.5753295080462,  -7.776165222288,  48.0           
      1334,  6.5753295080462,  -7.776165222288,  50.0           
      1335,  7.938858473253 ,  1.7252718813478,  42.0           
      1336,  10.02202138055 ,  1.8063197810774,  42.0           
      1337,  10.044739540332,  3.7306865831502,  42.0           
      1338,  7.938858473253 ,  1.7252718813478,  44.0           
      1339,  10.02202138055 ,  1.8063197810774,  44.0           
      1340,  10.044739540332,  3.7306865831502,  44.0           
      1341,  7.938858473253 ,  1.7252718813478,  46.0           
      1342,  10.02202138055 ,  1.8063197810774,  46.0           
      1343,  10.044739540332,  3.7306865831502,  46.0           
      1344,  7.938858473253 ,  1.7252718813478,  48.0           
      1345,  10.02202138055 ,  1.8063197810774,  48.0           
      1346,  10.044739540332,  3.7306865831502,  48.0           
      1347,  7.938858473253 ,  1.7252718813478,  50.0           
      1348,  10.02202138055 ,  1.8063197810774,  50.0           
      1349,  10.044739540332,  3.7306865831502,  50.0           
      1350,  -5.638155724715,  2.052120859954 ,  42.0           
      1351,  -4.596266658714,  3.8567256581193,  42.0           
      1352,  -5.638155724715,  2.052120859954 ,  44.0           
      1353,  -4.596266658714,  3.8567256581193,  44.0           
      1354,  -5.638155724715,  2.052120859954 ,  46.0           
      1355,  -4.596266658714,  3.8567256581193,  46.0           
      1356,  -5.638155724715,  2.052120859954 ,  48.0           
      1357,  -4.596266658714,  3.8567256581193,  48.0           
      1358,  -5.638155724715,  2.052120859954 ,  50.0           
      1359,  -4.596266658714,  3.8567256581193,  50.0           
      1360,  3.858691913387 ,  -6.925008225579,  42.0           
      1361,  1.9101676019574,  -7.801991328098,  42.0           
      1362,  3.2195102746744,  -9.661183017362,  42.0           
      1363,  4.8974198913603,  -8.718674119825,  42.0           
      1364,  3.858691913387 ,  -6.925008225579,  44.0           
      1365,  1.9101676019574,  -7.801991328098,  44.0           
      1366,  3.2195102746744,  -9.661183017362,  44.0           
      1367,  4.8974198913603,  -8.718674119825,  44.0           
      1368,  3.858691913387 ,  -6.925008225579,  46.0           
      1369,  1.9101676019574,  -7.801991328098,  46.0           
      1370,  3.2195102746744,  -9.661183017362,  46.0           
      1371,  4.8974198913603,  -8.718674119825,  46.0           
      1372,  3.858691913387 ,  -6.925008225579,  48.0           
      1373,  1.9101676019574,  -7.801991328098,  48.0           
      1374,  3.2195102746744,  -9.661183017362,  48.0           
      1375,  4.8974198913603,  -8.718674119825,  48.0           
      1376,  3.858691913387 ,  -6.925008225579,  50.0           
      1377,  1.9101676019574,  -7.801991328098,  50.0           
      1378,  3.2195102746744,  -9.661183017362,  50.0           
      1379,  4.8974198913603,  -8.718674119825,  50.0           
      1380,  -6.000000000092,  1.454964991E-12,  42.0           
      1381,  -6.000000000092,  1.456532044E-12,  44.0           
      1382,  -6.000000000092,  1.454998608E-12,  46.0           
      1383,  -6.000000000092,  1.455466763E-12,  48.0           
      1384,  -6.000000000092,  1.453397783E-12,  50.0           
      1385,  -1.041889066001,  5.9088465180733,  42.0           
      1386,  -1.041889066001,  5.9088465180733,  44.0           
      1387,  -1.041889066001,  5.9088465180733,  46.0           
      1388,  -1.041889066001,  5.9088465180733,  48.0           
      1389,  -1.041889066001,  5.9088465180733,  50.0           
      1390,  1.5416006579885,  -10.6036919149 ,  42.0           
      1391,  -1.7915004156  ,  -10.5643429079 ,  42.0           
      1392,  -0.136308958697,  -11.54620081244,  42.0           
      1393,  1.5416006579885,  -10.6036919149 ,  44.0           
      1394,  -1.7915004156  ,  -10.5643429079 ,  44.0           
      1395,  -0.136308958697,  -11.54620081244,  44.0           
      1396,  1.5416006579885,  -10.6036919149 ,  46.0           
      1397,  -1.7915004156  ,  -10.5643429079 ,  46.0           
      1398,  -0.136308958697,  -11.54620081244,  46.0           
      1399,  1.5416006579885,  -10.6036919149 ,  48.0           
      1400,  -1.7915004156  ,  -10.5643429079 ,  48.0           
      1401,  -0.136308958697,  -11.54620081244,  48.0           
      1402,  1.5416006579885,  -10.6036919149 ,  50.0           
      1403,  -1.7915004156  ,  -10.5643429079 ,  50.0           
      1404,  -0.136308958697,  -11.54620081244,  50.0           
      1405,  1.0417122480234,  -5.907807404108,  42.0           
      1406,  2.9995310494277,  -5.195352115988,  42.0           
      1407,  1.0417122480234,  -5.907807404108,  44.0           
      1408,  2.9995310494277,  -5.195352115988,  44.0           
      1409,  1.0417122480234,  -5.907807404108,  46.0           
      1410,  2.9995310494277,  -5.195352115988,  46.0           
      1411,  1.0417122480234,  -5.907807404108,  48.0           
      1412,  2.9995310494277,  -5.195352115988,  48.0           
      1413,  1.0417122480234,  -5.907807404108,  50.0           
      1414,  2.9995310494277,  -5.195352115988,  50.0           
      1415,  7.6298467654192,  -2.751851068413,  42.0           
      1416,  5.6371956583331,  -2.051775619621,  42.0           
      1417,  7.6298467654192,  -2.751851068413,  44.0           
      1418,  5.6371956583331,  -2.051775619621,  44.0           
      1419,  7.6298467654192,  -2.751851068413,  46.0           
      1420,  5.6371956583331,  -2.051775619621,  46.0           
      1421,  7.6298467654192,  -2.751851068413,  48.0           
      1422,  5.6371956583331,  -2.051775619621,  48.0           
      1423,  7.6298467654192,  -2.751851068413,  50.0           
      1424,  5.6371956583331,  -2.051775619621,  50.0           
      1425,  8.5990968404412,  0.1319453679897,  42.0           
      1426,  9.9993032207666,  -0.118047020995,  42.0           
      1427,  8.5990968404412,  0.1319453679897,  44.0           
      1428,  9.9993032207666,  -0.118047020995,  44.0           
      1429,  8.5990968404412,  0.1319453679897,  46.0           
      1430,  9.9993032207666,  -0.118047020995,  46.0           
      1431,  8.5990968404412,  0.1319453679897,  48.0           
      1432,  9.9993032207666,  -0.118047020995,  48.0           
      1433,  8.5990968404412,  0.1319453679897,  50.0           
      1434,  9.9993032207666,  -0.118047020995,  50.0           
      1435,  5.9999990656671,  1.441631929E-08,  42.0           
      1436,  5.9999990656671,  1.441631803E-08,  44.0           
      1437,  5.9999990656671,  1.441631799E-08,  46.0           
      1438,  5.9999990656671,  1.441631825E-08,  48.0           
      1439,  5.9999990656671,  1.441631867E-08,  50.0           
      1440,  8.0177509302772,  -1.189255224196,  42.0           
      1441,  8.0177509302772,  -1.189255224196,  44.0           
      1442,  8.0177509302772,  -1.189255224196,  46.0           
      1443,  8.0177509302772,  -1.189255224196,  48.0           
      1444,  8.0177509302772,  -1.189255224196,  50.0           
      1445,  -4.89741989136 ,  8.7186741198252,  42.0           
      1446,  -4.89741989136 ,  8.7186741198252,  44.0           
      1447,  -4.89741989136 ,  8.7186741198252,  46.0           
      1448,  -4.89741989136 ,  8.7186741198252,  48.0           
      1449,  -4.89741989136 ,  8.7186741198252,  50.0           
      1450,  -4.165906254931,  -7.525581988832,  42.0           
      1451,  -4.165906254931,  -7.525581988832,  44.0           
      1452,  -4.165906254931,  -7.525581988832,  46.0           
      1453,  -4.165906254931,  -7.525581988832,  48.0           
      1454,  -4.165906254931,  -7.525581988832,  50.0           
      1455,  -5.101883329406,  -8.60062709883 ,  42.0           
      1456,  -5.101883329406,  -8.60062709883 ,  44.0           
      1457,  -5.101883329406,  -8.60062709883 ,  46.0           
      1458,  -5.101883329406,  -8.60062709883 ,  48.0           
      1459,  -5.101883329406,  -8.60062709883 ,  50.0           
      1460,  -3.446691872503,  -9.582485003365,  42.0           
      1461,  -3.446691872503,  -9.582485003365,  44.0           
      1462,  -3.446691872503,  -9.582485003365,  46.0           
      1463,  -3.446691872503,  -9.582485003365,  48.0           
      1464,  -3.446691872503,  -9.582485003365,  50.0           
      1465,  -8.253239124732,  6.8336563247508,  42.0           
      1466,  -9.931148741418,  5.8911474272137,  42.0           
      1467,  -8.253239124732,  6.8336563247508,  44.0           
      1468,  -9.931148741418,  5.8911474272137,  44.0           
      1469,  -8.253239124732,  6.8336563247508,  46.0           
      1470,  -9.931148741418,  5.8911474272137,  46.0           
      1471,  -8.253239124732,  6.8336563247508,  48.0           
      1472,  -9.931148741418,  5.8911474272137,  48.0           
      1473,  -8.253239124732,  6.8336563247508,  50.0           
      1474,  -9.931148741418,  5.8911474272137,  50.0           
      1475,  9.9765850609837,  -2.042413823068,  42.0           
      1476,  9.9765850609837,  -2.042413823068,  44.0           
      1477,  9.9765850609837,  -2.042413823068,  46.0           
      1478,  9.9765850609837,  -2.042413823068,  48.0           
      1479,  9.9765850609837,  -2.042413823068,  50.0           
      1480,  10.067457700115,  5.655053385223 ,  42.0           
      1481,  10.067457700115,  5.655053385223 ,  44.0           
      1482,  10.067457700115,  5.655053385223 ,  46.0           
      1483,  10.067457700115,  5.655053385223 ,  48.0           
      1484,  10.067457700115,  5.655053385223 ,  50.0           
      1485,  -10.06745770012,  -5.655053385223,  42.0           
      1486,  -10.06745770012,  -5.655053385223,  44.0           
      1487,  -10.06745770012,  -5.655053385223,  46.0           
      1488,  -10.06745770012,  -5.655053385223,  48.0           
      1489,  -10.06745770012,  -5.655053385223,  50.0           
      1490,  -6.575329508046,  7.776165222288 ,  42.0           
      1491,  -6.575329508046,  7.776165222288 ,  44.0           
      1492,  -6.575329508046,  7.776165222288 ,  46.0           
      1493,  -6.575329508046,  7.776165222288 ,  48.0           
      1494,  -6.575329508046,  7.776165222288 ,  50.0           
      1495,  1.8806381747212,  -1.574433761622,  42.0           
      1496,  0.7054264613003,  -2.847480683664,  42.0           
      1497,  2.070371435854 ,  -3.80841138266 ,  42.0           
      1498,  3.2140364879237,  -2.693160895228,  41.999999999991
      1499,  1.8806381747212,  -1.574433761622,  44.0           
      1500,  0.7054264613003,  -2.847480683664,  44.0           
      1501,  2.070371435854 ,  -3.80841138266 ,  44.0           
      1502,  3.2140364879237,  -2.693160895228,  43.999999999991
      1503,  1.8806381747212,  -1.574433761622,  46.0           
      1504,  0.7054264613003,  -2.847480683664,  46.0           
      1505,  2.070371435854 ,  -3.80841138266 ,  46.0           
      1506,  3.2140364879237,  -2.693160895228,  45.999999999991
      1507,  1.8806381747212,  -1.574433761622,  48.0           
      1508,  0.7054264613003,  -2.847480683664,  48.0           
      1509,  2.070371435854 ,  -3.80841138266 ,  48.0           
      1510,  3.2140364879237,  -2.693160895228,  47.999999999991
      1511,  1.8806381747212,  -1.574433761622,  50.0           
      1512,  0.7054264613003,  -2.847480683664,  50.0           
      1513,  2.070371435854 ,  -3.80841138266 ,  50.0           
      1514,  3.2140364879237,  -2.693160895228,  50.0           
      1515,  -0.619654524262,  0.5174613112183,  42.0           
      1516,  0.6134403548099,  1.9558806046333,  42.0           
      1517,  -0.705380326025,  2.8460932611043,  42.0           
      1518,  -1.880567975117,  1.5724781234618,  42.0           
      1519,  -0.619654524262,  0.5174613112183,  44.0           
      1520,  0.6134403548099,  1.9558806046333,  44.0           
      1521,  -0.705380326025,  2.8460932611043,  44.0           
      1522,  -1.880567975117,  1.5724781234618,  44.0           
      1523,  -0.619654524262,  0.5174613112183,  46.0           
      1524,  0.6134403548099,  1.9558806046333,  46.0           
      1525,  -0.705380326025,  2.8460932611043,  46.0           
      1526,  -1.880567975117,  1.5724781234618,  46.0           
      1527,  -0.619654524262,  0.5174613112183,  48.0           
      1528,  0.6134403548099,  1.9558806046333,  48.0           
      1529,  -0.705380326025,  2.8460932611043,  48.0           
      1530,  -1.880567975117,  1.5724781234618,  48.0           
      1531,  -0.619654524262,  0.5174613112183,  50.0           
      1532,  0.6134403548099,  1.9558806046333,  50.0           
      1533,  -0.705380326025,  2.8460932611043,  50.0           
      1534,  -1.880567975117,  1.5724781234618,  50.0           
      1535,  -4.744962805115,  0.0486589429636,  42.0           
      1536,  -4.112314896233,  1.3703616856004,  42.0           
      1537,  -4.744962805115,  0.0486589429636,  44.0           
      1538,  -4.112314896233,  1.3703616856004,  44.0           
      1539,  -4.744962805115,  0.0486589429636,  46.0           
      1540,  -4.112314896233,  1.3703616856004,  46.0           
      1541,  -4.744962805115,  0.0486589429636,  48.0           
      1542,  -4.112314896233,  1.3703616856004,  48.0           
      1543,  -4.744962805115,  0.0486589429636,  50.0           
      1544,  -4.112314896233,  1.3703616856004,  50.0           
      1545,  2.9266479569612,  -0.193418777441,  41.999999999992
      1546,  4.1119172726467,  -1.37190790724 ,  41.999999999753
      1547,  2.9266479569612,  -0.193418777441,  43.999999999992
      1548,  4.1119172726467,  -1.37190790724 ,  43.999999999753
      1549,  2.9266479569612,  -0.193418777441,  45.999999999992
      1550,  4.1119172726467,  -1.37190790724 ,  45.999999999753
      1551,  2.9266479569612,  -0.193418777441,  47.999999999992
      1552,  4.1119172726467,  -1.37190790724 ,  47.999999999753
      1553,  2.9266479569612,  -0.193418777441,  50.0           
      1554,  4.1119172726467,  -1.37190790724 ,  50.0           
      1555,  -1.876961175696,  -3.490826356601,  42.0           
      1556,  -3.106943506645,  -2.460885346039,  42.0           
      1557,  -1.876961175696,  -3.490826356601,  44.0           
      1558,  -3.106943506645,  -2.460885346039,  44.0           
      1559,  -1.876961175696,  -3.490826356601,  46.0           
      1560,  -3.106943506645,  -2.460885346039,  46.0           
      1561,  -1.876961175696,  -3.490826356601,  48.0           
      1562,  -3.106943506645,  -2.460885346039,  48.0           
      1563,  -1.876961175696,  -3.490826356601,  50.0           
      1564,  -3.106943506645,  -2.460885346039,  50.0           
      1565,  -0.612946831189,  -1.957676293611,  42.0           
      1566,  -1.817299274034,  -0.95035820782 ,  42.0           
      1567,  -0.612946831189,  -1.957676293611,  44.0           
      1568,  -1.817299274034,  -0.95035820782 ,  44.0           
      1569,  -0.612946831189,  -1.957676293611,  46.0           
      1570,  -1.817299274034,  -0.95035820782 ,  46.0           
      1571,  -0.612946831189,  -1.957676293611,  48.0           
      1572,  -1.817299274034,  -0.95035820782 ,  48.0           
      1573,  -0.612946831189,  -1.957676293611,  50.0           
      1574,  -1.817299274034,  -0.95035820782 ,  50.0           
      1575,  -0.48321253667 ,  -4.219043635796,  42.0           
      1576,  -0.48321253667 ,  -4.219043635796,  44.0           
      1577,  -0.48321253667 ,  -4.219043635796,  46.0           
      1578,  -0.48321253667 ,  -4.219043635796,  48.0           
      1579,  -0.48321253667 ,  -4.219043635796,  50.0           
      1580,  1.8178535463224,  0.9481904499359,  42.0           
      1581,  3.1076306985827,  2.4594991129434,  41.99999999999 
      1582,  1.8776107056318,  3.49002524561  ,  42.0           
      1583,  1.8178535463224,  0.9481904499359,  44.0           
      1584,  3.1076306985827,  2.4594991129434,  43.99999999999 
      1585,  1.8776107056318,  3.49002524561  ,  44.0           
      1586,  1.8178535463224,  0.9481904499359,  46.0           
      1587,  3.1076306985827,  2.4594991129434,  45.99999999999 
      1588,  1.8776107056318,  3.49002524561  ,  46.0           
      1589,  1.8178535463224,  0.9481904499359,  48.0           
      1590,  3.1076306985827,  2.4594991129434,  47.99999999999 
      1591,  1.8776107056318,  3.49002524561  ,  48.0           
      1592,  1.8178535463224,  0.9481904499359,  50.0           
      1593,  3.1076306985827,  2.4594991129434,  50.0           
      1594,  1.8776107056318,  3.49002524561  ,  50.0           
      1595,  0.4834229815044,  4.2185647260689,  42.0           
      1596,  0.4834229815044,  4.2185647260689,  44.0           
      1597,  0.4834229815044,  4.2185647260689,  46.0           
      1598,  0.4834229815044,  4.2185647260689,  48.0           
      1599,  0.4834229815044,  4.2185647260689,  50.0           
      1600,  -0.877778288481,  4.6631951120259,  42.0           
      1601,  -2.07069392643 ,  3.8077505429084,  42.0           
      1602,  -0.877778288481,  4.6631951120259,  44.0           
      1603,  -2.07069392643 ,  3.8077505429084,  44.0           
      1604,  -0.877778288481,  4.6631951120259,  46.0           
      1605,  -2.07069392643 ,  3.8077505429084,  46.0           
      1606,  -0.877778288481,  4.6631951120259,  48.0           
      1607,  -2.07069392643 ,  3.8077505429084,  48.0           
      1608,  -0.877778288481,  4.6631951120259,  50.0           
      1609,  -2.07069392643 ,  3.8077505429084,  50.0           
      1610,  4.0692072643216,  1.2141538391379,  41.999999999752
      1611,  4.7451304668466,  -0.05002592835 ,  41.999999999749
      1612,  4.0692072643216,  1.2141538391379,  43.999999999752
      1613,  4.7451304668466,  -0.05002592835 ,  43.999999999749
      1614,  4.0692072643216,  1.2141538391379,  45.999999999752
      1615,  4.7451304668466,  -0.05002592835 ,  45.999999999749
      1616,  4.0692072643216,  1.2141538391379,  47.999999999752
      1617,  4.7451304668466,  -0.05002592835 ,  47.999999999749
      1618,  4.0692072643216,  1.2141538391379,  50.0           
      1619,  4.7451304668466,  -0.05002592835 ,  50.0           
      1620,  0.6201154939472,  -0.519544658176,  42.0           
      1621,  0.6201154939472,  -0.519544658176,  44.0           
      1622,  0.6201154939472,  -0.519544658176,  46.0           
      1623,  0.6201154939472,  -0.519544658176,  48.0           
      1624,  0.6201154939472,  -0.519544658176,  50.0           
      1625,  -4.068399608592,  -1.215738128145,  42.0           
      1626,  -2.92636689258 ,  0.1911274162672,  42.0           
      1627,  -4.068399608592,  -1.215738128145,  44.0           
      1628,  -2.92636689258 ,  0.1911274162672,  44.0           
      1629,  -4.068399608592,  -1.215738128145,  46.0           
      1630,  -2.92636689258 ,  0.1911274162672,  46.0           
      1631,  -4.068399608592,  -1.215738128145,  48.0           
      1632,  -2.92636689258 ,  0.1911274162672,  48.0           
      1633,  -4.068399608592,  -1.215738128145,  50.0           
      1634,  -2.92636689258 ,  0.1911274162672,  50.0           
      1635,  0.8776870093866,  -4.663276130909,  42.0           
      1636,  0.8776870093866,  -4.663276130909,  44.0           
      1637,  0.8776870093866,  -4.663276130909,  46.0           
      1638,  0.8776870093866,  -4.663276130909,  48.0           
      1639,  0.8776870093866,  -4.663276130909,  50.0           
      1640,  -3.214434756192,  2.692012649613 ,  42.0           
      1641,  -3.214434756192,  2.692012649613 ,  44.0           
      1642,  -3.214434756192,  2.692012649613 ,  46.0           
      1643,  -3.214434756192,  2.692012649613 ,  48.0           
      1644,  -3.214434756192,  2.692012649613 ,  50.0           
**HW_COMPONENT     ID=2     COLOR=43     NAME=网格
*ELEMENT,TYPE=C3D8
       456,        47,        30,        31,        43,       475,       476,       477,       478
       457,       475,       476,       477,       478,       479,       480,       481,       482
       458,       479,       480,       481,       482,       483,       484,       485,       486
       459,       483,       484,       485,       486,       487,       488,       489,       490
       460,       487,       488,       489,       490,       491,       492,       493,       494
       461,       491,       492,       493,       494,       495,       496,       497,       498
       462,       495,       496,       497,       498,       499,       500,       501,       502
       463,       499,       500,       501,       502,       503,       504,       505,       506
       464,       503,       504,       505,       506,       507,       508,       509,       510
       465,       507,       508,       509,       510,       511,       512,       513,       514
       466,       511,       512,       513,       514,       515,       516,       517,       518
       467,       515,       516,       517,       518,       519,       520,       521,       522
       468,       519,       520,       521,       522,       523,       524,       525,       526
       469,       523,       524,       525,       526,       527,       528,       529,       530
       470,       527,       528,       529,       530,       531,       532,       533,       534
       471,       531,       532,       533,       534,       535,       536,       537,       538
       472,       535,       536,       537,       538,       539,       540,       541,       542
       473,       539,       540,       541,       542,       543,       544,       545,       546
       474,       543,       544,       545,       546,       547,       548,       549,       550
       475,       547,       548,       549,       550,       551,       552,       553,       554
       476,        27,        26,         9,         8,       555,       556,       330,       329
       477,       555,       556,       330,       329,       557,       558,       338,       337
       478,       557,       558,       338,       337,       559,       560,       346,       345
       479,       559,       560,       346,       345,       561,       562,       354,       353
       480,       561,       562,       354,       353,       563,       564,       362,       361
       481,       563,       564,       362,       361,       565,       566,       370,       369
       482,       565,       566,       370,       369,       567,       568,       378,       377
       483,       567,       568,       378,       377,       569,       570,       386,       385
       484,       569,       570,       386,       385,       571,       572,       394,       393
       485,       571,       572,       394,       393,       573,       574,       402,       401
       486,       573,       574,       402,       401,       575,       576,       410,       409
       487,       575,       576,       410,       409,       577,       578,       418,       417
       488,       577,       578,       418,       417,       579,       580,       426,       425
       489,       579,       580,       426,       425,       581,       582,       434,       433
       490,       581,       582,       434,       433,       583,       584,       442,       441
       491,       583,       584,       442,       441,       585,       586,       450,       449
       492,       585,       586,       450,       449,       587,       588,       458,       457
       493,       587,       588,       458,       457,       589,       590,       466,       465
       494,       589,       590,       466,       465,       591,       592,       474,       473
       495,       591,       592,       474,       473,       593,       594,        86,        87
       496,        35,        36,        47,        48,       595,       596,       475,       597
       497,       595,       596,       475,       597,       598,       599,       479,       600
       498,       598,       599,       479,       600,       601,       602,       483,       603
       499,       601,       602,       483,       603,       604,       605,       487,       606
       500,       604,       605,       487,       606,       607,       608,       491,       609
       501,       607,       608,       491,       609,       610,       611,       495,       612
       502,       610,       611,       495,       612,       613,       614,       499,       615
       503,       613,       614,       499,       615,       616,       617,       503,       618
       504,       616,       617,       503,       618,       619,       620,       507,       621
       505,       619,       620,       507,       621,       622,       623,       511,       624
       506,       622,       623,       511,       624,       625,       626,       515,       627
       507,       625,       626,       515,       627,       628,       629,       519,       630
       508,       628,       629,       519,       630,       631,       632,       523,       633
       509,       631,       632,       523,       633,       634,       635,       527,       636
       510,       634,       635,       527,       636,       637,       638,       531,       639
       511,       637,       638,       531,       639,       640,       641,       535,       642
       512,       640,       641,       535,       642,       643,       644,       539,       645
       513,       643,       644,       539,       645,       646,       647,       543,       648
       514,       646,       647,       543,       648,       649,       650,       547,       651
       515,       649,       650,       547,       651,       652,       653,       551,       654
       516,        20,        29,         6,         5,       655,       656,       327,       326
       517,       655,       656,       327,       326,       657,       658,       335,       334
       518,       657,       658,       335,       334,       659,       660,       343,       342
       519,       659,       660,       343,       342,       661,       662,       351,       350
       520,       661,       662,       351,       350,       663,       664,       359,       358
       521,       663,       664,       359,       358,       665,       666,       367,       366
       522,       665,       666,       367,       366,       667,       668,       375,       374
       523,       667,       668,       375,       374,       669,       670,       383,       382
       524,       669,       670,       383,       382,       671,       672,       391,       390
       525,       671,       672,       391,       390,       673,       674,       399,       398
       526,       673,       674,       399,       398,       675,       676,       407,       406
       527,       675,       676,       407,       406,       677,       678,       415,       414
       528,       677,       678,       415,       414,       679,       680,       423,       422
       529,       679,       680,       423,       422,       681,       682,       431,       430
       530,       681,       682,       431,       430,       683,       684,       439,       438
       531,       683,       684,       439,       438,       685,       686,       447,       446
       532,       685,       686,       447,       446,       687,       688,       455,       454
       533,       687,       688,       455,       454,       689,       690,       463,       462
       534,       689,       690,       463,       462,       691,       692,       471,       470
       535,       691,       692,       471,       470,       693,       694,        89,        90
       536,        39,        48,        44,        38,       695,       597,       696,       697
       537,       695,       597,       696,       697,       698,       600,       699,       700
       538,       698,       600,       699,       700,       701,       603,       702,       703
       539,       701,       603,       702,       703,       704,       606,       705,       706
       540,       704,       606,       705,       706,       707,       609,       708,       709
       541,       707,       609,       708,       709,       710,       612,       711,       712
       542,       710,       612,       711,       712,       713,       615,       714,       715
       543,       713,       615,       714,       715,       716,       618,       717,       718
       544,       716,       618,       717,       718,       719,       621,       720,       721
       545,       719,       621,       720,       721,       722,       624,       723,       724
       546,       722,       624,       723,       724,       725,       627,       726,       727
       547,       725,       627,       726,       727,       728,       630,       729,       730
       548,       728,       630,       729,       730,       731,       633,       732,       733
       549,       731,       633,       732,       733,       734,       636,       735,       736
       550,       734,       636,       735,       736,       737,       639,       738,       739
       551,       737,       639,       738,       739,       740,       642,       741,       742
       552,       740,       642,       741,       742,       743,       645,       744,       745
       553,       743,       645,       744,       745,       746,       648,       747,       748
       554,       746,       648,       747,       748,       749,       651,       750,       751
       555,       749,       651,       750,       751,       752,       654,       753,       754
       556,        33,        19,         1,        18,       755,       756,       152,       178
       557,       755,       756,       152,       178,       757,       758,       153,       186
       558,       757,       758,       153,       186,       759,       760,       154,       194
       559,       759,       760,       154,       194,       761,       762,       155,       202
       560,       761,       762,       155,       202,       763,       764,       156,       210
       561,       763,       764,       156,       210,       765,       766,       157,       218
       562,       765,       766,       157,       218,       767,       768,       158,       226
       563,       767,       768,       158,       226,       769,       770,       159,       234
       564,       769,       770,       159,       234,       771,       772,       160,       242
       565,       771,       772,       160,       242,       773,       774,       161,       250
       566,       773,       774,       161,       250,       775,       776,       162,       258
       567,       775,       776,       162,       258,       777,       778,       163,       266
       568,       777,       778,       163,       266,       779,       780,       164,       274
       569,       779,       780,       164,       274,       781,       782,       165,       282
       570,       781,       782,       165,       282,       783,       784,       166,       290
       571,       783,       784,       166,       290,       785,       786,       167,       298
       572,       785,       786,       167,       298,       787,       788,       168,       306
       573,       787,       788,       168,       306,       789,       790,       169,       314
       574,       789,       790,       169,       314,       791,       792,       170,       322
       575,       791,       792,       170,       322,       793,       794,        94,        95
       576,        26,        21,        10,         9,       556,       795,       133,       330
       577,       556,       795,       133,       330,       558,       796,       134,       338
       578,       558,       796,       134,       338,       560,       797,       135,       346
       579,       560,       797,       135,       346,       562,       798,       136,       354
       580,       562,       798,       136,       354,       564,       799,       137,       362
       581,       564,       799,       137,       362,       566,       800,       138,       370
       582,       566,       800,       138,       370,       568,       801,       139,       378
       583,       568,       801,       139,       378,       570,       802,       140,       386
       584,       570,       802,       140,       386,       572,       803,       141,       394
       585,       572,       803,       141,       394,       574,       804,       142,       402
       586,       574,       804,       142,       402,       576,       805,       143,       410
       587,       576,       805,       143,       410,       578,       806,       144,       418
       588,       578,       806,       144,       418,       580,       807,       145,       426
       589,       580,       807,       145,       426,       582,       808,       146,       434
       590,       582,       808,       146,       434,       584,       809,       147,       442
       591,       584,       809,       147,       442,       586,       810,       148,       450
       592,       586,       810,       148,       450,       588,       811,       149,       458
       593,       588,       811,       149,       458,       590,       812,       150,       466
       594,       590,       812,       150,       466,       592,       813,       151,       474
       595,       592,       813,       151,       474,       594,       814,        85,        86
       596,        29,        20,        23,        41,       656,       655,       815,       816
       597,       656,       655,       815,       816,       658,       657,       817,       818
       598,       658,       657,       817,       818,       660,       659,       819,       820
       599,       660,       659,       819,       820,       662,       661,       821,       822
       600,       662,       661,       821,       822,       664,       663,       823,       824
       601,       664,       663,       823,       824,       666,       665,       825,       826
       602,       666,       665,       825,       826,       668,       667,       827,       828
       603,       668,       667,       827,       828,       670,       669,       829,       830
       604,       670,       669,       829,       830,       672,       671,       831,       832
       605,       672,       671,       831,       832,       674,       673,       833,       834
       606,       674,       673,       833,       834,       676,       675,       835,       836
       607,       676,       675,       835,       836,       678,       677,       837,       838
       608,       678,       677,       837,       838,       680,       679,       839,       840
       609,       680,       679,       839,       840,       682,       681,       841,       842
       610,       682,       681,       841,       842,       684,       683,       843,       844
       611,       684,       683,       843,       844,       686,       685,       845,       846
       612,       686,       685,       845,       846,       688,       687,       847,       848
       613,       688,       687,       847,       848,       690,       689,       849,       850
       614,       690,       689,       849,       850,       692,       691,       851,       852
       615,       692,       691,       851,       852,       694,       693,       853,       854
       616,        40,        24,        25,        42,       855,       856,       857,       858
       617,       855,       856,       857,       858,       859,       860,       861,       862
       618,       859,       860,       861,       862,       863,       864,       865,       866
       619,       863,       864,       865,       866,       867,       868,       869,       870
       620,       867,       868,       869,       870,       871,       872,       873,       874
       621,       871,       872,       873,       874,       875,       876,       877,       878
       622,       875,       876,       877,       878,       879,       880,       881,       882
       623,       879,       880,       881,       882,       883,       884,       885,       886
       624,       883,       884,       885,       886,       887,       888,       889,       890
       625,       887,       888,       889,       890,       891,       892,       893,       894
       626,       891,       892,       893,       894,       895,       896,       897,       898
       627,       895,       896,       897,       898,       899,       900,       901,       902
       628,       899,       900,       901,       902,       903,       904,       905,       906
       629,       903,       904,       905,       906,       907,       908,       909,       910
       630,       907,       908,       909,       910,       911,       912,       913,       914
       631,       911,       912,       913,       914,       915,       916,       917,       918
       632,       915,       916,       917,       918,       919,       920,       921,       922
       633,       919,       920,       921,       922,       923,       924,       925,       926
       634,       923,       924,       925,       926,       927,       928,       929,       930
       635,       927,       928,       929,       930,       931,       932,       933,       934
       636,        42,        25,        19,        33,       858,       857,       756,       755
       637,       858,       857,       756,       755,       862,       861,       758,       757
       638,       862,       861,       758,       757,       866,       865,       760,       759
       639,       866,       865,       760,       759,       870,       869,       762,       761
       640,       870,       869,       762,       761,       874,       873,       764,       763
       641,       874,       873,       764,       763,       878,       877,       766,       765
       642,       878,       877,       766,       765,       882,       881,       768,       767
       643,       882,       881,       768,       767,       886,       885,       770,       769
       644,       886,       885,       770,       769,       890,       889,       772,       771
       645,       890,       889,       772,       771,       894,       893,       774,       773
       646,       894,       893,       774,       773,       898,       897,       776,       775
       647,       898,       897,       776,       775,       902,       901,       778,       777
       648,       902,       901,       778,       777,       906,       905,       780,       779
       649,       906,       905,       780,       779,       910,       909,       782,       781
       650,       910,       909,       782,       781,       914,       913,       784,       783
       651,       914,       913,       784,       783,       918,       917,       786,       785
       652,       918,       917,       786,       785,       922,       921,       788,       787
       653,       922,       921,       788,       787,       926,       925,       790,       789
       654,       926,       925,       790,       789,       930,       929,       792,       791
       655,       930,       929,       792,       791,       934,       933,       794,       793
       656,        46,        45,        26,        27,       935,       936,       556,       555
       657,       935,       936,       556,       555,       937,       938,       558,       557
       658,       937,       938,       558,       557,       939,       940,       560,       559
       659,       939,       940,       560,       559,       941,       942,       562,       561
       660,       941,       942,       562,       561,       943,       944,       564,       563
       661,       943,       944,       564,       563,       945,       946,       566,       565
       662,       945,       946,       566,       565,       947,       948,       568,       567
       663,       947,       948,       568,       567,       949,       950,       570,       569
       664,       949,       950,       570,       569,       951,       952,       572,       571
       665,       951,       952,       572,       571,       953,       954,       574,       573
       666,       953,       954,       574,       573,       955,       956,       576,       575
       667,       955,       956,       576,       575,       957,       958,       578,       577
       668,       957,       958,       578,       577,       959,       960,       580,       579
       669,       959,       960,       580,       579,       961,       962,       582,       581
       670,       961,       962,       582,       581,       963,       964,       584,       583
       671,       963,       964,       584,       583,       965,       966,       586,       585
       672,       965,       966,       586,       585,       967,       968,       588,       587
       673,       967,       968,       588,       587,       969,       970,       590,       589
       674,       969,       970,       590,       589,       971,       972,       592,       591
       675,       971,       972,       592,       591,       973,       974,       594,       593
       676,        34,        33,        18,        17,       975,       755,       178,       177
       677,       975,       755,       178,       177,       976,       757,       186,       185
       678,       976,       757,       186,       185,       977,       759,       194,       193
       679,       977,       759,       194,       193,       978,       761,       202,       201
       680,       978,       761,       202,       201,       979,       763,       210,       209
       681,       979,       763,       210,       209,       980,       765,       218,       217
       682,       980,       765,       218,       217,       981,       767,       226,       225
       683,       981,       767,       226,       225,       982,       769,       234,       233
       684,       982,       769,       234,       233,       983,       771,       242,       241
       685,       983,       771,       242,       241,       984,       773,       250,       249
       686,       984,       773,       250,       249,       985,       775,       258,       257
       687,       985,       775,       258,       257,       986,       777,       266,       265
       688,       986,       777,       266,       265,       987,       779,       274,       273
       689,       987,       779,       274,       273,       988,       781,       282,       281
       690,       988,       781,       282,       281,       989,       783,       290,       289
       691,       989,       783,       290,       289,       990,       785,       298,       297
       692,       990,       785,       298,       297,       991,       787,       306,       305
       693,       991,       787,       306,       305,       992,       789,       314,       313
       694,       992,       789,       314,       313,       993,       791,       322,       321
       695,       993,       791,       322,       321,       994,       793,        95,        96
       696,        45,        32,        21,        26,       936,       995,       795,       556
       697,       936,       995,       795,       556,       938,       996,       796,       558
       698,       938,       996,       796,       558,       940,       997,       797,       560
       699,       940,       997,       797,       560,       942,       998,       798,       562
       700,       942,       998,       798,       562,       944,       999,       799,       564
       701,       944,       999,       799,       564,       946,      1000,       800,       566
       702,       946,      1000,       800,       566,       948,      1001,       801,       568
       703,       948,      1001,       801,       568,       950,      1002,       802,       570
       704,       950,      1002,       802,       570,       952,      1003,       803,       572
       705,       952,      1003,       803,       572,       954,      1004,       804,       574
       706,       954,      1004,       804,       574,       956,      1005,       805,       576
       707,       956,      1005,       805,       576,       958,      1006,       806,       578
       708,       958,      1006,       806,       578,       960,      1007,       807,       580
       709,       960,      1007,       807,       580,       962,      1008,       808,       582
       710,       962,      1008,       808,       582,       964,      1009,       809,       584
       711,       964,      1009,       809,       584,       966,      1010,       810,       586
       712,       966,      1010,       810,       586,       968,      1011,       811,       588
       713,       968,      1011,       811,       588,       970,      1012,       812,       590
       714,       970,      1012,       812,       590,       972,      1013,       813,       592
       715,       972,      1013,       813,       592,       974,      1014,       814,       594
       716,        37,        46,        27,        28,      1015,       935,       555,      1016
       717,      1015,       935,       555,      1016,      1017,       937,       557,      1018
       718,      1017,       937,       557,      1018,      1019,       939,       559,      1020
       719,      1019,       939,       559,      1020,      1021,       941,       561,      1022
       720,      1021,       941,       561,      1022,      1023,       943,       563,      1024
       721,      1023,       943,       563,      1024,      1025,       945,       565,      1026
       722,      1025,       945,       565,      1026,      1027,       947,       567,      1028
       723,      1027,       947,       567,      1028,      1029,       949,       569,      1030
       724,      1029,       949,       569,      1030,      1031,       951,       571,      1032
       725,      1031,       951,       571,      1032,      1033,       953,       573,      1034
       726,      1033,       953,       573,      1034,      1035,       955,       575,      1036
       727,      1035,       955,       575,      1036,      1037,       957,       577,      1038
       728,      1037,       957,       577,      1038,      1039,       959,       579,      1040
       729,      1039,       959,       579,      1040,      1041,       961,       581,      1042
       730,      1041,       961,       581,      1042,      1043,       963,       583,      1044
       731,      1043,       963,       583,      1044,      1045,       965,       585,      1046
       732,      1045,       965,       585,      1046,      1047,       967,       587,      1048
       733,      1047,       967,       587,      1048,      1049,       969,       589,      1050
       734,      1049,       969,       589,      1050,      1051,       971,       591,      1052
       735,      1051,       971,       591,      1052,      1053,       973,       593,      1054
       736,        31,        30,        13,        12,       477,       476,       173,       172
       737,       477,       476,       173,       172,       481,       480,       181,       180
       738,       481,       480,       181,       180,       485,       484,       189,       188
       739,       485,       484,       189,       188,       489,       488,       197,       196
       740,       489,       488,       197,       196,       493,       492,       205,       204
       741,       493,       492,       205,       204,       497,       496,       213,       212
       742,       497,       496,       213,       212,       501,       500,       221,       220
       743,       501,       500,       221,       220,       505,       504,       229,       228
       744,       505,       504,       229,       228,       509,       508,       237,       236
       745,       509,       508,       237,       236,       513,       512,       245,       244
       746,       513,       512,       245,       244,       517,       516,       253,       252
       747,       517,       516,       253,       252,       521,       520,       261,       260
       748,       521,       520,       261,       260,       525,       524,       269,       268
       749,       525,       524,       269,       268,       529,       528,       277,       276
       750,       529,       528,       277,       276,       533,       532,       285,       284
       751,       533,       532,       285,       284,       537,       536,       293,       292
       752,       537,       536,       293,       292,       541,       540,       301,       300
       753,       541,       540,       301,       300,       545,       544,       309,       308
       754,       545,       544,       309,       308,       549,       548,       317,       316
       755,       549,       548,       317,       316,       553,       552,       100,       101
       756,        28,        29,        41,        37,      1016,       656,       816,      1015
       757,      1016,       656,       816,      1015,      1018,       658,       818,      1017
       758,      1018,       658,       818,      1017,      1020,       660,       820,      1019
       759,      1020,       660,       820,      1019,      1022,       662,       822,      1021
       760,      1022,       662,       822,      1021,      1024,       664,       824,      1023
       761,      1024,       664,       824,      1023,      1026,       666,       826,      1025
       762,      1026,       666,       826,      1025,      1028,       668,       828,      1027
       763,      1028,       668,       828,      1027,      1030,       670,       830,      1029
       764,      1030,       670,       830,      1029,      1032,       672,       832,      1031
       765,      1032,       672,       832,      1031,      1034,       674,       834,      1033
       766,      1034,       674,       834,      1033,      1036,       676,       836,      1035
       767,      1036,       676,       836,      1035,      1038,       678,       838,      1037
       768,      1038,       678,       838,      1037,      1040,       680,       840,      1039
       769,      1040,       680,       840,      1039,      1042,       682,       842,      1041
       770,      1042,       682,       842,      1041,      1044,       684,       844,      1043
       771,      1044,       684,       844,      1043,      1046,       686,       846,      1045
       772,      1046,       686,       846,      1045,      1048,       688,       848,      1047
       773,      1048,       688,       848,      1047,      1050,       690,       850,      1049
       774,      1050,       690,       850,      1049,      1052,       692,       852,      1051
       775,      1052,       692,       852,      1051,      1054,       694,       854,      1053
       776,        44,        43,        45,        46,       696,       478,       936,       935
       777,       696,       478,       936,       935,       699,       482,       938,       937
       778,       699,       482,       938,       937,       702,       486,       940,       939
       779,       702,       486,       940,       939,       705,       490,       942,       941
       780,       705,       490,       942,       941,       708,       494,       944,       943
       781,       708,       494,       944,       943,       711,       498,       946,       945
       782,       711,       498,       946,       945,       714,       502,       948,       947
       783,       714,       502,       948,       947,       717,       506,       950,       949
       784,       717,       506,       950,       949,       720,       510,       952,       951
       785,       720,       510,       952,       951,       723,       514,       954,       953
       786,       723,       514,       954,       953,       726,       518,       956,       955
       787,       726,       518,       956,       955,       729,       522,       958,       957
       788,       729,       522,       958,       957,       732,       526,       960,       959
       789,       732,       526,       960,       959,       735,       530,       962,       961
       790,       735,       530,       962,       961,       738,       534,       964,       963
       791,       738,       534,       964,       963,       741,       538,       966,       965
       792,       741,       538,       966,       965,       744,       542,       968,       967
       793,       744,       542,       968,       967,       747,       546,       970,       969
       794,       747,       546,       970,       969,       750,       550,       972,       971
       795,       750,       550,       972,       971,       753,       554,       974,       973
       796,        38,        44,        46,        37,       697,       696,       935,      1015
       797,       697,       696,       935,      1015,       700,       699,       937,      1017
       798,       700,       699,       937,      1017,       703,       702,       939,      1019
       799,       703,       702,       939,      1019,       706,       705,       941,      1021
       800,       706,       705,       941,      1021,       709,       708,       943,      1023
       801,       709,       708,       943,      1023,       712,       711,       945,      1025
       802,       712,       711,       945,      1025,       715,       714,       947,      1027
       803,       715,       714,       947,      1027,       718,       717,       949,      1029
       804,       718,       717,       949,      1029,       721,       720,       951,      1031
       805,       721,       720,       951,      1031,       724,       723,       953,      1033
       806,       724,       723,       953,      1033,       727,       726,       955,      1035
       807,       727,       726,       955,      1035,       730,       729,       957,      1037
       808,       730,       729,       957,      1037,       733,       732,       959,      1039
       809,       733,       732,       959,      1039,       736,       735,       961,      1041
       810,       736,       735,       961,      1041,       739,       738,       963,      1043
       811,       739,       738,       963,      1043,       742,       741,       965,      1045
       812,       742,       741,       965,      1045,       745,       744,       967,      1047
       813,       745,       744,       967,      1047,       748,       747,       969,      1049
       814,       748,       747,       969,      1049,       751,       750,       971,      1051
       815,       751,       750,       971,      1051,       754,       753,       973,      1053
       816,        38,        40,        42,        39,       697,       855,       858,       695
       817,       697,       855,       858,       695,       700,       859,       862,       698
       818,       700,       859,       862,       698,       703,       863,       866,       701
       819,       703,       863,       866,       701,       706,       867,       870,       704
       820,       706,       867,       870,       704,       709,       871,       874,       707
       821,       709,       871,       874,       707,       712,       875,       878,       710
       822,       712,       875,       878,       710,       715,       879,       882,       713
       823,       715,       879,       882,       713,       718,       883,       886,       716
       824,       718,       883,       886,       716,       721,       887,       890,       719
       825,       721,       887,       890,       719,       724,       891,       894,       722
       826,       724,       891,       894,       722,       727,       895,       898,       725
       827,       727,       895,       898,       725,       730,       899,       902,       728
       828,       730,       899,       902,       728,       733,       903,       906,       731
       829,       733,       903,       906,       731,       736,       907,       910,       734
       830,       736,       907,       910,       734,       739,       911,       914,       737
       831,       739,       911,       914,       737,       742,       915,       918,       740
       832,       742,       915,       918,       740,       745,       919,       922,       743
       833,       745,       919,       922,       743,       748,       923,       926,       746
       834,       748,       923,       926,       746,       751,       927,       930,       749
       835,       751,       927,       930,       749,       754,       931,       934,       752
       836,        30,        22,        14,        13,       476,      1055,       174,       173
       837,       476,      1055,       174,       173,       480,      1056,       182,       181
       838,       480,      1056,       182,       181,       484,      1057,       190,       189
       839,       484,      1057,       190,       189,       488,      1058,       198,       197
       840,       488,      1058,       198,       197,       492,      1059,       206,       205
       841,       492,      1059,       206,       205,       496,      1060,       214,       213
       842,       496,      1060,       214,       213,       500,      1061,       222,       221
       843,       500,      1061,       222,       221,       504,      1062,       230,       229
       844,       504,      1062,       230,       229,       508,      1063,       238,       237
       845,       508,      1063,       238,       237,       512,      1064,       246,       245
       846,       512,      1064,       246,       245,       516,      1065,       254,       253
       847,       516,      1065,       254,       253,       520,      1066,       262,       261
       848,       520,      1066,       262,       261,       524,      1067,       270,       269
       849,       524,      1067,       270,       269,       528,      1068,       278,       277
       850,       528,      1068,       278,       277,       532,      1069,       286,       285
       851,       532,      1069,       286,       285,       536,      1070,       294,       293
       852,       536,      1070,       294,       293,       540,      1071,       302,       301
       853,       540,      1071,       302,       301,       544,      1072,       310,       309
       854,       544,      1072,       310,       309,       548,      1073,       318,       317
       855,       548,      1073,       318,       317,       552,      1074,        99,       100
       856,        41,        23,        24,        40,       816,       815,       856,       855
       857,       816,       815,       856,       855,       818,       817,       860,       859
       858,       818,       817,       860,       859,       820,       819,       864,       863
       859,       820,       819,       864,       863,       822,       821,       868,       867
       860,       822,       821,       868,       867,       824,       823,       872,       871
       861,       824,       823,       872,       871,       826,       825,       876,       875
       862,       826,       825,       876,       875,       828,       827,       880,       879
       863,       828,       827,       880,       879,       830,       829,       884,       883
       864,       830,       829,       884,       883,       832,       831,       888,       887
       865,       832,       831,       888,       887,       834,       833,       892,       891
       866,       834,       833,       892,       891,       836,       835,       896,       895
       867,       836,       835,       896,       895,       838,       837,       900,       899
       868,       838,       837,       900,       899,       840,       839,       904,       903
       869,       840,       839,       904,       903,       842,       841,       908,       907
       870,       842,       841,       908,       907,       844,       843,       912,       911
       871,       844,       843,       912,       911,       846,       845,       916,       915
       872,       846,       845,       916,       915,       848,       847,       920,       919
       873,       848,       847,       920,       919,       850,       849,       924,       923
       874,       850,       849,       924,       923,       852,       851,       928,       927
       875,       852,       851,       928,       927,       854,       853,       932,       931
       876,        34,        35,        48,        39,       975,       595,       597,       695
       877,       975,       595,       597,       695,       976,       598,       600,       698
       878,       976,       598,       600,       698,       977,       601,       603,       701
       879,       977,       601,       603,       701,       978,       604,       606,       704
       880,       978,       604,       606,       704,       979,       607,       609,       707
       881,       979,       607,       609,       707,       980,       610,       612,       710
       882,       980,       610,       612,       710,       981,       613,       615,       713
       883,       981,       613,       615,       713,       982,       616,       618,       716
       884,       982,       616,       618,       716,       983,       619,       621,       719
       885,       983,       619,       621,       719,       984,       622,       624,       722
       886,       984,       622,       624,       722,       985,       625,       627,       725
       887,       985,       625,       627,       725,       986,       628,       630,       728
       888,       986,       628,       630,       728,       987,       631,       633,       731
       889,       987,       631,       633,       731,       988,       634,       636,       734
       890,       988,       634,       636,       734,       989,       637,       639,       737
       891,       989,       637,       639,       737,       990,       640,       642,       740
       892,       990,       640,       642,       740,       991,       643,       645,       743
       893,       991,       643,       645,       743,       992,       646,       648,       746
       894,       992,       646,       648,       746,       993,       649,       651,       749
       895,       993,       649,       651,       749,       994,       652,       654,       752
       896,        37,        41,        40,        38,      1015,       816,       855,       697
       897,      1015,       816,       855,       697,      1017,       818,       859,       700
       898,      1017,       818,       859,       700,      1019,       820,       863,       703
       899,      1019,       820,       863,       703,      1021,       822,       867,       706
       900,      1021,       822,       867,       706,      1023,       824,       871,       709
       901,      1023,       824,       871,       709,      1025,       826,       875,       712
       902,      1025,       826,       875,       712,      1027,       828,       879,       715
       903,      1027,       828,       879,       715,      1029,       830,       883,       718
       904,      1029,       830,       883,       718,      1031,       832,       887,       721
       905,      1031,       832,       887,       721,      1033,       834,       891,       724
       906,      1033,       834,       891,       724,      1035,       836,       895,       727
       907,      1035,       836,       895,       727,      1037,       838,       899,       730
       908,      1037,       838,       899,       730,      1039,       840,       903,       733
       909,      1039,       840,       903,       733,      1041,       842,       907,       736
       910,      1041,       842,       907,       736,      1043,       844,       911,       739
       911,      1043,       844,       911,       739,      1045,       846,       915,       742
       912,      1045,       846,       915,       742,      1047,       848,       919,       745
       913,      1047,       848,       919,       745,      1049,       850,       923,       748
       914,      1049,       850,       923,       748,      1051,       852,       927,       751
       915,      1051,       852,       927,       751,      1053,       854,       931,       754
       916,        35,        34,        17,        16,       595,       975,       177,       176
       917,       595,       975,       177,       176,       598,       976,       185,       184
       918,       598,       976,       185,       184,       601,       977,       193,       192
       919,       601,       977,       193,       192,       604,       978,       201,       200
       920,       604,       978,       201,       200,       607,       979,       209,       208
       921,       607,       979,       209,       208,       610,       980,       217,       216
       922,       610,       980,       217,       216,       613,       981,       225,       224
       923,       613,       981,       225,       224,       616,       982,       233,       232
       924,       616,       982,       233,       232,       619,       983,       241,       240
       925,       619,       983,       241,       240,       622,       984,       249,       248
       926,       622,       984,       249,       248,       625,       985,       257,       256
       927,       625,       985,       257,       256,       628,       986,       265,       264
       928,       628,       986,       265,       264,       631,       987,       273,       272
       929,       631,       987,       273,       272,       634,       988,       281,       280
       930,       634,       988,       281,       280,       637,       989,       289,       288
       931,       637,       989,       289,       288,       640,       990,       297,       296
       932,       640,       990,       297,       296,       643,       991,       305,       304
       933,       643,       991,       305,       304,       646,       992,       313,       312
       934,       646,       992,       313,       312,       649,       993,       321,       320
       935,       649,       993,       321,       320,       652,       994,        96,        97
       936,        28,        27,         8,         7,      1016,       555,       329,       328
       937,      1016,       555,       329,       328,      1018,       557,       337,       336
       938,      1018,       557,       337,       336,      1020,       559,       345,       344
       939,      1020,       559,       345,       344,      1022,       561,       353,       352
       940,      1022,       561,       353,       352,      1024,       563,       361,       360
       941,      1024,       563,       361,       360,      1026,       565,       369,       368
       942,      1026,       565,       369,       368,      1028,       567,       377,       376
       943,      1028,       567,       377,       376,      1030,       569,       385,       384
       944,      1030,       569,       385,       384,      1032,       571,       393,       392
       945,      1032,       571,       393,       392,      1034,       573,       401,       400
       946,      1034,       573,       401,       400,      1036,       575,       409,       408
       947,      1036,       575,       409,       408,      1038,       577,       417,       416
       948,      1038,       577,       417,       416,      1040,       579,       425,       424
       949,      1040,       579,       425,       424,      1042,       581,       433,       432
       950,      1042,       581,       433,       432,      1044,       583,       441,       440
       951,      1044,       583,       441,       440,      1046,       585,       449,       448
       952,      1046,       585,       449,       448,      1048,       587,       457,       456
       953,      1048,       587,       457,       456,      1050,       589,       465,       464
       954,      1050,       589,       465,       464,      1052,       591,       473,       472
       955,      1052,       591,       473,       472,      1054,       593,        87,        88
       956,        48,        47,        43,        44,       597,       475,       478,       696
       957,       597,       475,       478,       696,       600,       479,       482,       699
       958,       600,       479,       482,       699,       603,       483,       486,       702
       959,       603,       483,       486,       702,       606,       487,       490,       705
       960,       606,       487,       490,       705,       609,       491,       494,       708
       961,       609,       491,       494,       708,       612,       495,       498,       711
       962,       612,       495,       498,       711,       615,       499,       502,       714
       963,       615,       499,       502,       714,       618,       503,       506,       717
       964,       618,       503,       506,       717,       621,       507,       510,       720
       965,       621,       507,       510,       720,       624,       511,       514,       723
       966,       624,       511,       514,       723,       627,       515,       518,       726
       967,       627,       515,       518,       726,       630,       519,       522,       729
       968,       630,       519,       522,       729,       633,       523,       526,       732
       969,       633,       523,       526,       732,       636,       527,       530,       735
       970,       636,       527,       530,       735,       639,       531,       534,       738
       971,       639,       531,       534,       738,       642,       535,       538,       741
       972,       642,       535,       538,       741,       645,       539,       542,       744
       973,       645,       539,       542,       744,       648,       543,       546,       747
       974,       648,       543,       546,       747,       651,       547,       550,       750
       975,       651,       547,       550,       750,       654,       551,       554,       753
       976,        21,        32,        11,        10,       795,       995,       171,       133
       977,       795,       995,       171,       133,       796,       996,       179,       134
       978,       796,       996,       179,       134,       797,       997,       187,       135
       979,       797,       997,       187,       135,       798,       998,       195,       136
       980,       798,       998,       195,       136,       799,       999,       203,       137
       981,       799,       999,       203,       137,       800,      1000,       211,       138
       982,       800,      1000,       211,       138,       801,      1001,       219,       139
       983,       801,      1001,       219,       139,       802,      1002,       227,       140
       984,       802,      1002,       227,       140,       803,      1003,       235,       141
       985,       803,      1003,       235,       141,       804,      1004,       243,       142
       986,       804,      1004,       243,       142,       805,      1005,       251,       143
       987,       805,      1005,       251,       143,       806,      1006,       259,       144
       988,       806,      1006,       259,       144,       807,      1007,       267,       145
       989,       807,      1007,       267,       145,       808,      1008,       275,       146
       990,       808,      1008,       275,       146,       809,      1009,       283,       147
       991,       809,      1009,       283,       147,       810,      1010,       291,       148
       992,       810,      1010,       291,       148,       811,      1011,       299,       149
       993,       811,      1011,       299,       149,       812,      1012,       307,       150
       994,       812,      1012,       307,       150,       813,      1013,       315,       151
       995,       813,      1013,       315,       151,       814,      1014,       102,        85
       996,        43,        31,        32,        45,       478,       477,       995,       936
       997,       478,       477,       995,       936,       482,       481,       996,       938
       998,       482,       481,       996,       938,       486,       485,       997,       940
       999,       486,       485,       997,       940,       490,       489,       998,       942
      1000,       490,       489,       998,       942,       494,       493,       999,       944
      1001,       494,       493,       999,       944,       498,       497,      1000,       946
      1002,       498,       497,      1000,       946,       502,       501,      1001,       948
      1003,       502,       501,      1001,       948,       506,       505,      1002,       950
      1004,       506,       505,      1002,       950,       510,       509,      1003,       952
      1005,       510,       509,      1003,       952,       514,       513,      1004,       954
      1006,       514,       513,      1004,       954,       518,       517,      1005,       956
      1007,       518,       517,      1005,       956,       522,       521,      1006,       958
      1008,       522,       521,      1006,       958,       526,       525,      1007,       960
      1009,       526,       525,      1007,       960,       530,       529,      1008,       962
      1010,       530,       529,      1008,       962,       534,       533,      1009,       964
      1011,       534,       533,      1009,       964,       538,       537,      1010,       966
      1012,       538,       537,      1010,       966,       542,       541,      1011,       968
      1013,       542,       541,      1011,       968,       546,       545,      1012,       970
      1014,       546,       545,      1012,       970,       550,       549,      1013,       972
      1015,       550,       549,      1013,       972,       554,       553,      1014,       974
      1016,        39,        42,        33,        34,       695,       858,       755,       975
      1017,       695,       858,       755,       975,       698,       862,       757,       976
      1018,       698,       862,       757,       976,       701,       866,       759,       977
      1019,       701,       866,       759,       977,       704,       870,       761,       978
      1020,       704,       870,       761,       978,       707,       874,       763,       979
      1021,       707,       874,       763,       979,       710,       878,       765,       980
      1022,       710,       878,       765,       980,       713,       882,       767,       981
      1023,       713,       882,       767,       981,       716,       886,       769,       982
      1024,       716,       886,       769,       982,       719,       890,       771,       983
      1025,       719,       890,       771,       983,       722,       894,       773,       984
      1026,       722,       894,       773,       984,       725,       898,       775,       985
      1027,       725,       898,       775,       985,       728,       902,       777,       986
      1028,       728,       902,       777,       986,       731,       906,       779,       987
      1029,       731,       906,       779,       987,       734,       910,       781,       988
      1030,       734,       910,       781,       988,       737,       914,       783,       989
      1031,       737,       914,       783,       989,       740,       918,       785,       990
      1032,       740,       918,       785,       990,       743,       922,       787,       991
      1033,       743,       922,       787,       991,       746,       926,       789,       992
      1034,       746,       926,       789,       992,       749,       930,       791,       993
      1035,       749,       930,       791,       993,       752,       934,       793,       994
      1036,        19,        25,         2,         1,       756,       857,       323,       152
      1037,       756,       857,       323,       152,       758,       861,       331,       153
      1038,       758,       861,       331,       153,       760,       865,       339,       154
      1039,       760,       865,       339,       154,       762,       869,       347,       155
      1040,       762,       869,       347,       155,       764,       873,       355,       156
      1041,       764,       873,       355,       156,       766,       877,       363,       157
      1042,       766,       877,       363,       157,       768,       881,       371,       158
      1043,       768,       881,       371,       158,       770,       885,       379,       159
      1044,       770,       885,       379,       159,       772,       889,       387,       160
      1045,       772,       889,       387,       160,       774,       893,       395,       161
      1046,       774,       893,       395,       161,       776,       897,       403,       162
      1047,       776,       897,       403,       162,       778,       901,       411,       163
      1048,       778,       901,       411,       163,       780,       905,       419,       164
      1049,       780,       905,       419,       164,       782,       909,       427,       165
      1050,       782,       909,       427,       165,       784,       913,       435,       166
      1051,       784,       913,       435,       166,       786,       917,       443,       167
      1052,       786,       917,       443,       167,       788,       921,       451,       168
      1053,       788,       921,       451,       168,       790,       925,       459,       169
      1054,       790,       925,       459,       169,       792,       929,       467,       170
      1055,       792,       929,       467,       170,       794,       933,        93,        94
      1056,        22,        36,        15,        14,      1055,       596,       175,       174
      1057,      1055,       596,       175,       174,      1056,       599,       183,       182
      1058,      1056,       599,       183,       182,      1057,       602,       191,       190
      1059,      1057,       602,       191,       190,      1058,       605,       199,       198
      1060,      1058,       605,       199,       198,      1059,       608,       207,       206
      1061,      1059,       608,       207,       206,      1060,       611,       215,       214
      1062,      1060,       611,       215,       214,      1061,       614,       223,       222
      1063,      1061,       614,       223,       222,      1062,       617,       231,       230
      1064,      1062,       617,       231,       230,      1063,       620,       239,       238
      1065,      1063,       620,       239,       238,      1064,       623,       247,       246
      1066,      1064,       623,       247,       246,      1065,       626,       255,       254
      1067,      1065,       626,       255,       254,      1066,       629,       263,       262
      1068,      1066,       629,       263,       262,      1067,       632,       271,       270
      1069,      1067,       632,       271,       270,      1068,       635,       279,       278
      1070,      1068,       635,       279,       278,      1069,       638,       287,       286
      1071,      1069,       638,       287,       286,      1070,       641,       295,       294
      1072,      1070,       641,       295,       294,      1071,       644,       303,       302
      1073,      1071,       644,       303,       302,      1072,       647,       311,       310
      1074,      1072,       647,       311,       310,      1073,       650,       319,       318
      1075,      1073,       650,       319,       318,      1074,       653,        98,        99
      1076,        36,        35,        16,        15,       596,       595,       176,       175
      1077,       596,       595,       176,       175,       599,       598,       184,       183
      1078,       599,       598,       184,       183,       602,       601,       192,       191
      1079,       602,       601,       192,       191,       605,       604,       200,       199
      1080,       605,       604,       200,       199,       608,       607,       208,       207
      1081,       608,       607,       208,       207,       611,       610,       216,       215
      1082,       611,       610,       216,       215,       614,       613,       224,       223
      1083,       614,       613,       224,       223,       617,       616,       232,       231
      1084,       617,       616,       232,       231,       620,       619,       240,       239
      1085,       620,       619,       240,       239,       623,       622,       248,       247
      1086,       623,       622,       248,       247,       626,       625,       256,       255
      1087,       626,       625,       256,       255,       629,       628,       264,       263
      1088,       629,       628,       264,       263,       632,       631,       272,       271
      1089,       632,       631,       272,       271,       635,       634,       280,       279
      1090,       635,       634,       280,       279,       638,       637,       288,       287
      1091,       638,       637,       288,       287,       641,       640,       296,       295
      1092,       641,       640,       296,       295,       644,       643,       304,       303
      1093,       644,       643,       304,       303,       647,       646,       312,       311
      1094,       647,       646,       312,       311,       650,       649,       320,       319
      1095,       650,       649,       320,       319,       653,       652,        97,        98
      1096,        29,        28,         7,         6,       656,      1016,       328,       327
      1097,       656,      1016,       328,       327,       658,      1018,       336,       335
      1098,       658,      1018,       336,       335,       660,      1020,       344,       343
      1099,       660,      1020,       344,       343,       662,      1022,       352,       351
      1100,       662,      1022,       352,       351,       664,      1024,       360,       359
      1101,       664,      1024,       360,       359,       666,      1026,       368,       367
      1102,       666,      1026,       368,       367,       668,      1028,       376,       375
      1103,       668,      1028,       376,       375,       670,      1030,       384,       383
      1104,       670,      1030,       384,       383,       672,      1032,       392,       391
      1105,       672,      1032,       392,       391,       674,      1034,       400,       399
      1106,       674,      1034,       400,       399,       676,      1036,       408,       407
      1107,       676,      1036,       408,       407,       678,      1038,       416,       415
      1108,       678,      1038,       416,       415,       680,      1040,       424,       423
      1109,       680,      1040,       424,       423,       682,      1042,       432,       431
      1110,       682,      1042,       432,       431,       684,      1044,       440,       439
      1111,       684,      1044,       440,       439,       686,      1046,       448,       447
      1112,       686,      1046,       448,       447,       688,      1048,       456,       455
      1113,       688,      1048,       456,       455,       690,      1050,       464,       463
      1114,       690,      1050,       464,       463,       692,      1052,       472,       471
      1115,       692,      1052,       472,       471,       694,      1054,        88,        89
      1116,        36,        22,        30,        47,       596,      1055,       476,       475
      1117,       596,      1055,       476,       475,       599,      1056,       480,       479
      1118,       599,      1056,       480,       479,       602,      1057,       484,       483
      1119,       602,      1057,       484,       483,       605,      1058,       488,       487
      1120,       605,      1058,       488,       487,       608,      1059,       492,       491
      1121,       608,      1059,       492,       491,       611,      1060,       496,       495
      1122,       611,      1060,       496,       495,       614,      1061,       500,       499
      1123,       614,      1061,       500,       499,       617,      1062,       504,       503
      1124,       617,      1062,       504,       503,       620,      1063,       508,       507
      1125,       620,      1063,       508,       507,       623,      1064,       512,       511
      1126,       623,      1064,       512,       511,       626,      1065,       516,       515
      1127,       626,      1065,       516,       515,       629,      1066,       520,       519
      1128,       629,      1066,       520,       519,       632,      1067,       524,       523
      1129,       632,      1067,       524,       523,       635,      1068,       528,       527
      1130,       635,      1068,       528,       527,       638,      1069,       532,       531
      1131,       638,      1069,       532,       531,       641,      1070,       536,       535
      1132,       641,      1070,       536,       535,       644,      1071,       540,       539
      1133,       644,      1071,       540,       539,       647,      1072,       544,       543
      1134,       647,      1072,       544,       543,       650,      1073,       548,       547
      1135,       650,      1073,       548,       547,       653,      1074,       552,       551
      1136,        23,        20,         5,         4,       815,       655,       326,       325
      1137,       815,       655,       326,       325,       817,       657,       334,       333
      1138,       817,       657,       334,       333,       819,       659,       342,       341
      1139,       819,       659,       342,       341,       821,       661,       350,       349
      1140,       821,       661,       350,       349,       823,       663,       358,       357
      1141,       823,       663,       358,       357,       825,       665,       366,       365
      1142,       825,       665,       366,       365,       827,       667,       374,       373
      1143,       827,       667,       374,       373,       829,       669,       382,       381
      1144,       829,       669,       382,       381,       831,       671,       390,       389
      1145,       831,       671,       390,       389,       833,       673,       398,       397
      1146,       833,       673,       398,       397,       835,       675,       406,       405
      1147,       835,       675,       406,       405,       837,       677,       414,       413
      1148,       837,       677,       414,       413,       839,       679,       422,       421
      1149,       839,       679,       422,       421,       841,       681,       430,       429
      1150,       841,       681,       430,       429,       843,       683,       438,       437
      1151,       843,       683,       438,       437,       845,       685,       446,       445
      1152,       845,       685,       446,       445,       847,       687,       454,       453
      1153,       847,       687,       454,       453,       849,       689,       462,       461
      1154,       849,       689,       462,       461,       851,       691,       470,       469
      1155,       851,       691,       470,       469,       853,       693,        90,        91
      1156,        25,        24,         3,         2,       857,       856,       324,       323
      1157,       857,       856,       324,       323,       861,       860,       332,       331
      1158,       861,       860,       332,       331,       865,       864,       340,       339
      1159,       865,       864,       340,       339,       869,       868,       348,       347
      1160,       869,       868,       348,       347,       873,       872,       356,       355
      1161,       873,       872,       356,       355,       877,       876,       364,       363
      1162,       877,       876,       364,       363,       881,       880,       372,       371
      1163,       881,       880,       372,       371,       885,       884,       380,       379
      1164,       885,       884,       380,       379,       889,       888,       388,       387
      1165,       889,       888,       388,       387,       893,       892,       396,       395
      1166,       893,       892,       396,       395,       897,       896,       404,       403
      1167,       897,       896,       404,       403,       901,       900,       412,       411
      1168,       901,       900,       412,       411,       905,       904,       420,       419
      1169,       905,       904,       420,       419,       909,       908,       428,       427
      1170,       909,       908,       428,       427,       913,       912,       436,       435
      1171,       913,       912,       436,       435,       917,       916,       444,       443
      1172,       917,       916,       444,       443,       921,       920,       452,       451
      1173,       921,       920,       452,       451,       925,       924,       460,       459
      1174,       925,       924,       460,       459,       929,       928,       468,       467
      1175,       929,       928,       468,       467,       933,       932,        92,        93
      1176,        32,        31,        12,        11,       995,       477,       172,       171
      1177,       995,       477,       172,       171,       996,       481,       180,       179
      1178,       996,       481,       180,       179,       997,       485,       188,       187
      1179,       997,       485,       188,       187,       998,       489,       196,       195
      1180,       998,       489,       196,       195,       999,       493,       204,       203
      1181,       999,       493,       204,       203,      1000,       497,       212,       211
      1182,      1000,       497,       212,       211,      1001,       501,       220,       219
      1183,      1001,       501,       220,       219,      1002,       505,       228,       227
      1184,      1002,       505,       228,       227,      1003,       509,       236,       235
      1185,      1003,       509,       236,       235,      1004,       513,       244,       243
      1186,      1004,       513,       244,       243,      1005,       517,       252,       251
      1187,      1005,       517,       252,       251,      1006,       521,       260,       259
      1188,      1006,       521,       260,       259,      1007,       525,       268,       267
      1189,      1007,       525,       268,       267,      1008,       529,       276,       275
      1190,      1008,       529,       276,       275,      1009,       533,       284,       283
      1191,      1009,       533,       284,       283,      1010,       537,       292,       291
      1192,      1010,       537,       292,       291,      1011,       541,       300,       299
      1193,      1011,       541,       300,       299,      1012,       545,       308,       307
      1194,      1012,       545,       308,       307,      1013,       549,       316,       315
      1195,      1013,       549,       316,       315,      1014,       553,       101,       102
      1196,        24,        23,         4,         3,       856,       815,       325,       324
      1197,       856,       815,       325,       324,       860,       817,       333,       332
      1198,       860,       817,       333,       332,       864,       819,       341,       340
      1199,       864,       819,       341,       340,       868,       821,       349,       348
      1200,       868,       821,       349,       348,       872,       823,       357,       356
      1201,       872,       823,       357,       356,       876,       825,       365,       364
      1202,       876,       825,       365,       364,       880,       827,       373,       372
      1203,       880,       827,       373,       372,       884,       829,       381,       380
      1204,       884,       829,       381,       380,       888,       831,       389,       388
      1205,       888,       831,       389,       388,       892,       833,       397,       396
      1206,       892,       833,       397,       396,       896,       835,       405,       404
      1207,       896,       835,       405,       404,       900,       837,       413,       412
      1208,       900,       837,       413,       412,       904,       839,       421,       420
      1209,       904,       839,       421,       420,       908,       841,       429,       428
      1210,       908,       841,       429,       428,       912,       843,       437,       436
      1211,       912,       843,       437,       436,       916,       845,       445,       444
      1212,       916,       845,       445,       444,       920,       847,       453,       452
      1213,       920,       847,       453,       452,       924,       849,       461,       460
      1214,       924,       849,       461,       460,       928,       851,       469,       468
      1215,       928,       851,       469,       468,       932,       853,        91,        92
      1216,        86,       129,       132,        87,      1075,      1076,      1077,      1078
      1217,      1075,      1076,      1077,      1078,      1079,      1080,      1081,      1082
      1218,      1079,      1080,      1081,      1082,      1083,      1084,      1085,      1086
      1219,      1083,      1084,      1085,      1086,      1087,      1088,      1089,      1090
      1220,      1087,      1088,      1089,      1090,      1091,      1092,      1093,      1094
      1221,       110,       132,        60,        59,      1095,      1077,      1096,      1097
      1222,      1095,      1077,      1096,      1097,      1098,      1081,      1099,      1100
      1223,      1098,      1081,      1099,      1100,      1101,      1085,      1102,      1103
      1224,      1101,      1085,      1102,      1103,      1104,      1089,      1105,      1106
      1225,      1104,      1089,      1105,      1106,      1107,      1093,      1108,      1109
      1226,       118,       130,        72,        71,      1110,      1111,      1112,      1113
      1227,      1110,      1111,      1112,      1113,      1114,      1115,      1116,      1117
      1228,      1114,      1115,      1116,      1117,      1118,      1119,      1120,      1121
      1229,      1118,      1119,      1120,      1121,      1122,      1123,      1124,      1125
      1230,      1122,      1123,      1124,      1125,      1126,      1127,      1128,      1129
      1231,       132,       129,       111,        60,      1077,      1076,      1130,      1096
      1232,      1077,      1076,      1130,      1096,      1081,      1080,      1131,      1099
      1233,      1081,      1080,      1131,      1099,      1085,      1084,      1132,      1102
      1234,      1085,      1084,      1132,      1102,      1089,      1088,      1133,      1105
      1235,      1089,      1088,      1133,      1105,      1093,      1092,      1134,      1108
      1236,       120,       121,        76,        75,      1135,      1136,      1137,      1138
      1237,      1135,      1136,      1137,      1138,      1139,      1140,      1141,      1142
      1238,      1139,      1140,      1141,      1142,      1143,      1144,      1145,      1146
      1239,      1143,      1144,      1145,      1146,      1147,      1148,      1149,      1150
      1240,      1147,      1148,      1149,      1150,      1151,      1152,      1153,      1154
      1241,       114,       115,        66,        65,      1155,      1156,      1157,      1158
      1242,      1155,      1156,      1157,      1158,      1159,      1160,      1161,      1162
      1243,      1159,      1160,      1161,      1162,      1163,      1164,      1165,      1166
      1244,      1163,      1164,      1165,      1166,      1167,      1168,      1169,      1170
      1245,      1167,      1168,      1169,      1170,      1171,      1172,      1173,      1174
      1246,       130,       128,       119,        72,      1111,      1175,      1176,      1112
      1247,      1111,      1175,      1176,      1112,      1115,      1177,      1178,      1116
      1248,      1115,      1177,      1178,      1116,      1119,      1179,      1180,      1120
      1249,      1119,      1179,      1180,      1120,      1123,      1181,      1182,      1124
      1250,      1123,      1181,      1182,      1124,      1127,      1183,      1184,      1128
      1251,        92,       104,       103,       127,      1185,      1186,      1187,      1188
      1252,      1185,      1186,      1187,      1188,      1189,      1190,      1191,      1192
      1253,      1189,      1190,      1191,      1192,      1193,      1194,      1195,      1196
      1254,      1193,      1194,      1195,      1196,      1197,      1198,      1199,      1200
      1255,      1197,      1198,      1199,      1200,      1201,      1202,      1203,      1204
      1256,        86,       112,       111,       129,      1075,      1205,      1130,      1076
      1257,      1075,      1205,      1130,      1076,      1079,      1206,      1131,      1080
      1258,      1079,      1206,      1131,      1080,      1083,      1207,      1132,      1084
      1259,      1083,      1207,      1132,      1084,      1087,      1208,      1133,      1088
      1260,      1087,      1208,      1133,      1088,      1091,      1209,      1134,      1092
      1261,       111,       112,        63,        62,      1130,      1205,      1210,      1211
      1262,      1130,      1205,      1210,      1211,      1131,      1206,      1212,      1213
      1263,      1131,      1206,      1212,      1213,      1132,      1207,      1214,      1215
      1264,      1132,      1207,      1214,      1215,      1133,      1208,      1216,      1217
      1265,      1133,      1208,      1216,      1217,      1134,      1209,      1218,      1219
      1266,       122,       123,        78,        77,      1220,      1221,      1222,      1223
      1267,      1220,      1221,      1222,      1223,      1224,      1225,      1226,      1227
      1268,      1224,      1225,      1226,      1227,      1228,      1229,      1230,      1231
      1269,      1228,      1229,      1230,      1231,      1232,      1233,      1234,      1235
      1270,      1232,      1233,      1234,      1235,      1236,      1237,      1238,      1239
      1271,        84,       103,        50,        49,      1240,      1187,      1241,      1242
      1272,      1240,      1187,      1241,      1242,      1243,      1191,      1244,      1245
      1273,      1243,      1191,      1244,      1245,      1246,      1195,      1247,      1248
      1274,      1246,      1195,      1247,      1248,      1249,      1199,      1250,      1251
      1275,      1249,      1199,      1250,      1251,      1252,      1203,      1253,      1254
      1276,       100,       118,       117,       116,      1255,      1110,      1256,      1257
      1277,      1255,      1110,      1256,      1257,      1258,      1114,      1259,      1260
      1278,      1258,      1114,      1259,      1260,      1261,      1118,      1262,      1263
      1279,      1261,      1118,      1262,      1263,      1264,      1122,      1265,      1266
      1280,      1264,      1122,      1265,      1266,      1267,      1126,      1268,      1269
      1281,       113,       114,        65,        64,      1270,      1155,      1158,      1271
      1282,      1270,      1155,      1158,      1271,      1272,      1159,      1162,      1273
      1283,      1272,      1159,      1162,      1273,      1274,      1163,      1166,      1275
      1284,      1274,      1163,      1166,      1275,      1276,      1167,      1170,      1277
      1285,      1276,      1167,      1170,      1277,      1278,      1171,      1174,      1279
      1286,        72,       119,        74,        73,      1112,      1176,      1280,      1281
      1287,      1112,      1176,      1280,      1281,      1116,      1178,      1282,      1283
      1288,      1116,      1178,      1282,      1283,      1120,      1180,      1284,      1285
      1289,      1120,      1180,      1284,      1285,      1124,      1182,      1286,      1287
      1290,      1124,      1182,      1286,      1287,      1128,      1184,      1288,      1289
      1291,        96,        95,       123,       122,      1290,      1291,      1221,      1220
      1292,      1290,      1291,      1221,      1220,      1292,      1293,      1225,      1224
      1293,      1292,      1293,      1225,      1224,      1294,      1295,      1229,      1228
      1294,      1294,      1295,      1229,      1228,      1296,      1297,      1233,      1232
      1295,      1296,      1297,      1233,      1232,      1298,      1299,      1237,      1236
      1296,        96,       122,       121,        97,      1290,      1220,      1136,      1300
      1297,      1290,      1220,      1136,      1300,      1292,      1224,      1140,      1301
      1298,      1292,      1224,      1140,      1301,      1294,      1228,      1144,      1302
      1299,      1294,      1228,      1144,      1302,      1296,      1232,      1148,      1303
      1300,      1296,      1232,      1148,      1303,      1298,      1236,      1152,      1304
      1301,        98,       120,       119,       128,      1305,      1135,      1176,      1175
      1302,      1305,      1135,      1176,      1175,      1306,      1139,      1178,      1177
      1303,      1306,      1139,      1178,      1177,      1307,      1143,      1180,      1179
      1304,      1307,      1143,      1180,      1179,      1308,      1147,      1182,      1181
      1305,      1308,      1147,      1182,      1181,      1309,      1151,      1184,      1183
      1306,       119,       120,        75,        74,      1176,      1135,      1138,      1280
      1307,      1176,      1135,      1138,      1280,      1178,      1139,      1142,      1282
      1308,      1178,      1139,      1142,      1282,      1180,      1143,      1146,      1284
      1309,      1180,      1143,      1146,      1284,      1182,      1147,      1150,      1286
      1310,      1182,      1147,      1150,      1286,      1184,      1151,      1154,      1288
      1311,        89,        88,       108,       107,      1310,      1311,      1312,      1313
      1312,      1310,      1311,      1312,      1313,      1314,      1315,      1316,      1317
      1313,      1314,      1315,      1316,      1317,      1318,      1319,      1320,      1321
      1314,      1318,      1319,      1320,      1321,      1322,      1323,      1324,      1325
      1315,      1322,      1323,      1324,      1325,      1326,      1327,      1328,      1329
      1316,       103,       104,        51,        50,      1187,      1186,      1330,      1241
      1317,      1187,      1186,      1330,      1241,      1191,      1190,      1331,      1244
      1318,      1191,      1190,      1331,      1244,      1195,      1194,      1332,      1247
      1319,      1195,      1194,      1332,      1247,      1199,      1198,      1333,      1250
      1320,      1199,      1198,      1333,      1250,      1203,      1202,      1334,      1253
      1321,       123,       124,        81,        80,      1221,      1335,      1336,      1337
      1322,      1221,      1335,      1336,      1337,      1225,      1338,      1339,      1340
      1323,      1225,      1338,      1339,      1340,      1229,      1341,      1342,      1343
      1324,      1229,      1341,      1342,      1343,      1233,      1344,      1345,      1346
      1325,      1233,      1344,      1345,      1346,      1237,      1347,      1348,      1349
      1326,       102,       101,       115,       114,      1350,      1351,      1156,      1155
      1327,      1350,      1351,      1156,      1155,      1352,      1353,      1160,      1159
      1328,      1352,      1353,      1160,      1159,      1354,      1355,      1164,      1163
      1329,      1354,      1355,      1164,      1163,      1356,      1357,      1168,      1167
      1330,      1356,      1357,      1168,      1167,      1358,      1359,      1172,      1171
      1331,       105,       106,        53,        52,      1360,      1361,      1362,      1363
      1332,      1360,      1361,      1362,      1363,      1364,      1365,      1366,      1367
      1333,      1364,      1365,      1366,      1367,      1368,      1369,      1370,      1371
      1334,      1368,      1369,      1370,      1371,      1372,      1373,      1374,      1375
      1335,      1372,      1373,      1374,      1375,      1376,      1377,      1378,      1379
      1336,        85,       113,       112,        86,      1380,      1270,      1205,      1075
      1337,      1380,      1270,      1205,      1075,      1381,      1272,      1206,      1079
      1338,      1381,      1272,      1206,      1079,      1382,      1274,      1207,      1083
      1339,      1382,      1274,      1207,      1083,      1383,      1276,      1208,      1087
      1340,      1383,      1276,      1208,      1087,      1384,      1278,      1209,      1091
      1341,       104,       105,        52,        51,      1186,      1360,      1363,      1330
      1342,      1186,      1360,      1363,      1330,      1190,      1364,      1367,      1331
      1343,      1190,      1364,      1367,      1331,      1194,      1368,      1371,      1332
      1344,      1194,      1368,      1371,      1332,      1198,      1372,      1375,      1333
      1345,      1198,      1372,      1375,      1333,      1202,      1376,      1379,      1334
      1346,       102,       114,       113,        85,      1350,      1155,      1270,      1380
      1347,      1350,      1155,      1270,      1380,      1352,      1159,      1272,      1381
      1348,      1352,      1159,      1272,      1381,      1354,      1163,      1274,      1382
      1349,      1354,      1163,      1274,      1382,      1356,      1167,      1276,      1383
      1350,      1356,      1167,      1276,      1383,      1358,      1171,      1278,      1384
      1351,        98,       128,       130,        99,      1305,      1175,      1111,      1385
      1352,      1305,      1175,      1111,      1385,      1306,      1177,      1115,      1386
      1353,      1306,      1177,      1115,      1386,      1307,      1179,      1119,      1387
      1354,      1307,      1179,      1119,      1387,      1308,      1181,      1123,      1388
      1355,      1308,      1181,      1123,      1388,      1309,      1183,      1127,      1389
      1356,        54,       107,        56,        55,      1390,      1313,      1391,      1392
      1357,      1390,      1313,      1391,      1392,      1393,      1317,      1394,      1395
      1358,      1393,      1317,      1394,      1395,      1396,      1321,      1397,      1398
      1359,      1396,      1321,      1397,      1398,      1399,      1325,      1400,      1401
      1360,      1399,      1325,      1400,      1401,      1402,      1329,      1403,      1404
      1361,        90,       106,       105,        91,      1405,      1361,      1360,      1406
      1362,      1405,      1361,      1360,      1406,      1407,      1365,      1364,      1408
      1363,      1407,      1365,      1364,      1408,      1409,      1369,      1368,      1410
      1364,      1409,      1369,      1368,      1410,      1411,      1373,      1372,      1412
      1365,      1411,      1373,      1372,      1412,      1413,      1377,      1376,      1414
      1366,        92,       127,       131,        93,      1185,      1188,      1415,      1416
      1367,      1185,      1188,      1415,      1416,      1189,      1192,      1417,      1418
      1368,      1189,      1192,      1417,      1418,      1193,      1196,      1419,      1420
      1369,      1193,      1196,      1419,      1420,      1197,      1200,      1421,      1422
      1370,      1197,      1200,      1421,      1422,      1201,      1204,      1423,      1424
      1371,        97,       121,       120,        98,      1300,      1136,      1135,      1305
      1372,      1300,      1136,      1135,      1305,      1301,      1140,      1139,      1306
      1373,      1301,      1140,      1139,      1306,      1302,      1144,      1143,      1307
      1374,      1302,      1144,      1143,      1307,      1303,      1148,      1147,      1308
      1375,      1303,      1148,      1147,      1308,      1304,      1152,      1151,      1309
      1376,       124,       125,        82,        81,      1335,      1425,      1426,      1336
      1377,      1335,      1425,      1426,      1336,      1338,      1427,      1428,      1339
      1378,      1338,      1427,      1428,      1339,      1341,      1429,      1430,      1342
      1379,      1341,      1429,      1430,      1342,      1344,      1431,      1432,      1345
      1380,      1344,      1431,      1432,      1345,      1347,      1433,      1434,      1348
      1381,       131,       127,       103,        84,      1415,      1188,      1187,      1240
      1382,      1415,      1188,      1187,      1240,      1417,      1192,      1191,      1243
      1383,      1417,      1192,      1191,      1243,      1419,      1196,      1195,      1246
      1384,      1419,      1196,      1195,      1246,      1421,      1200,      1199,      1249
      1385,      1421,      1200,      1199,      1249,      1423,      1204,      1203,      1252
      1386,        90,        89,       107,       106,      1405,      1310,      1313,      1361
      1387,      1405,      1310,      1313,      1361,      1407,      1314,      1317,      1365
      1388,      1407,      1314,      1317,      1365,      1409,      1318,      1321,      1369
      1389,      1409,      1318,      1321,      1369,      1411,      1322,      1325,      1373
      1390,      1411,      1322,      1325,      1373,      1413,      1326,      1329,      1377
      1391,        95,        94,       124,       123,      1291,      1435,      1335,      1221
      1392,      1291,      1435,      1335,      1221,      1293,      1436,      1338,      1225
      1393,      1293,      1436,      1338,      1225,      1295,      1437,      1341,      1229
      1394,      1295,      1437,      1341,      1229,      1297,      1438,      1344,      1233
      1395,      1297,      1438,      1344,      1233,      1299,      1439,      1347,      1237
      1396,        87,       132,       110,        88,      1078,      1077,      1095,      1311
      1397,      1078,      1077,      1095,      1311,      1082,      1081,      1098,      1315
      1398,      1082,      1081,      1098,      1315,      1086,      1085,      1101,      1319
      1399,      1086,      1085,      1101,      1319,      1090,      1089,      1104,      1323
      1400,      1090,      1089,      1104,      1323,      1094,      1093,      1107,      1327
      1401,        94,       126,       125,       124,      1435,      1440,      1425,      1335
      1402,      1435,      1440,      1425,      1335,      1436,      1441,      1427,      1338
      1403,      1436,      1441,      1427,      1338,      1437,      1442,      1429,      1341
      1404,      1437,      1442,      1429,      1341,      1438,      1443,      1431,      1344
      1405,      1438,      1443,      1431,      1344,      1439,      1444,      1433,      1347
      1406,        93,       131,       126,        94,      1416,      1415,      1440,      1435
      1407,      1416,      1415,      1440,      1435,      1418,      1417,      1441,      1436
      1408,      1418,      1417,      1441,      1436,      1420,      1419,      1442,      1437
      1409,      1420,      1419,      1442,      1437,      1422,      1421,      1443,      1438
      1410,      1422,      1421,      1443,      1438,      1424,      1423,      1444,      1439
      1411,       121,       122,        77,        76,      1136,      1220,      1223,      1137
      1412,      1136,      1220,      1223,      1137,      1140,      1224,      1227,      1141
      1413,      1140,      1224,      1227,      1141,      1144,      1228,      1231,      1145
      1414,      1144,      1228,      1231,      1145,      1148,      1232,      1235,      1149
      1415,      1148,      1232,      1235,      1149,      1152,      1236,      1239,      1153
      1416,       117,       118,        71,        70,      1256,      1110,      1113,      1445
      1417,      1256,      1110,      1113,      1445,      1259,      1114,      1117,      1446
      1418,      1259,      1114,      1117,      1446,      1262,      1118,      1121,      1447
      1419,      1262,      1118,      1121,      1447,      1265,      1122,      1125,      1448
      1420,      1265,      1122,      1125,      1448,      1268,      1126,      1129,      1449
      1421,        88,       110,       109,       108,      1311,      1095,      1450,      1312
      1422,      1311,      1095,      1450,      1312,      1315,      1098,      1451,      1316
      1423,      1315,      1098,      1451,      1316,      1319,      1101,      1452,      1320
      1424,      1319,      1101,      1452,      1320,      1323,      1104,      1453,      1324
      1425,      1323,      1104,      1453,      1324,      1327,      1107,      1454,      1328
      1426,        99,       130,       118,       100,      1385,      1111,      1110,      1255
      1427,      1385,      1111,      1110,      1255,      1386,      1115,      1114,      1258
      1428,      1386,      1115,      1114,      1258,      1387,      1119,      1118,      1261
      1429,      1387,      1119,      1118,      1261,      1388,      1123,      1122,      1264
      1430,      1388,      1123,      1122,      1264,      1389,      1127,      1126,      1267
      1431,       109,       110,        59,        58,      1450,      1095,      1097,      1455
      1432,      1450,      1095,      1097,      1455,      1451,      1098,      1100,      1456
      1433,      1451,      1098,      1100,      1456,      1452,      1101,      1103,      1457
      1434,      1452,      1101,      1103,      1457,      1453,      1104,      1106,      1458
      1435,      1453,      1104,      1106,      1458,      1454,      1107,      1109,      1459
      1436,       108,       109,        58,        57,      1312,      1450,      1455,      1460
      1437,      1312,      1450,      1455,      1460,      1316,      1451,      1456,      1461
      1438,      1316,      1451,      1456,      1461,      1320,      1452,      1457,      1462
      1439,      1320,      1452,      1457,      1462,      1324,      1453,      1458,      1463
      1440,      1324,      1453,      1458,      1463,      1328,      1454,      1459,      1464
      1441,       115,        68,        67,        66,      1156,      1465,      1466,      1157
      1442,      1156,      1465,      1466,      1157,      1160,      1467,      1468,      1161
      1443,      1160,      1467,      1468,      1161,      1164,      1469,      1470,      1165
      1444,      1164,      1469,      1470,      1165,      1168,      1471,      1472,      1169
      1445,      1168,      1471,      1472,      1169,      1172,      1473,      1474,      1173
      1446,       112,       113,        64,        63,      1205,      1270,      1271,      1210
      1447,      1205,      1270,      1271,      1210,      1206,      1272,      1273,      1212
      1448,      1206,      1272,      1273,      1212,      1207,      1274,      1275,      1214
      1449,      1207,      1274,      1275,      1214,      1208,      1276,      1277,      1216
      1450,      1208,      1276,      1277,      1216,      1209,      1278,      1279,      1218
      1451,        91,       105,       104,        92,      1406,      1360,      1186,      1185
      1452,      1406,      1360,      1186,      1185,      1408,      1364,      1190,      1189
      1453,      1408,      1364,      1190,      1189,      1410,      1368,      1194,      1193
      1454,      1410,      1368,      1194,      1193,      1412,      1372,      1198,      1197
      1455,      1412,      1372,      1198,      1197,      1414,      1376,      1202,      1201
      1456,       107,       108,        57,        56,      1313,      1312,      1460,      1391
      1457,      1313,      1312,      1460,      1391,      1317,      1316,      1461,      1394
      1458,      1317,      1316,      1461,      1394,      1321,      1320,      1462,      1397
      1459,      1321,      1320,      1462,      1397,      1325,      1324,      1463,      1400
      1460,      1325,      1324,      1463,      1400,      1329,      1328,      1464,      1403
      1461,       125,       126,        83,        82,      1425,      1440,      1475,      1426
      1462,      1425,      1440,      1475,      1426,      1427,      1441,      1476,      1428
      1463,      1427,      1441,      1476,      1428,      1429,      1442,      1477,      1430
      1464,      1429,      1442,      1477,      1430,      1431,      1443,      1478,      1432
      1465,      1431,      1443,      1478,      1432,      1433,      1444,      1479,      1434
      1466,       101,       100,       116,       115,      1351,      1255,      1257,      1156
      1467,      1351,      1255,      1257,      1156,      1353,      1258,      1260,      1160
      1468,      1353,      1258,      1260,      1160,      1355,      1261,      1263,      1164
      1469,      1355,      1261,      1263,      1164,      1357,      1264,      1266,      1168
      1470,      1357,      1264,      1266,      1168,      1359,      1267,      1269,      1172
      1471,        78,       123,        80,        79,      1222,      1221,      1337,      1480
      1472,      1222,      1221,      1337,      1480,      1226,      1225,      1340,      1481
      1473,      1226,      1225,      1340,      1481,      1230,      1229,      1343,      1482
      1474,      1230,      1229,      1343,      1482,      1234,      1233,      1346,      1483
      1475,      1234,      1233,      1346,      1483,      1238,      1237,      1349,      1484
      1476,       126,       131,        84,        83,      1440,      1415,      1240,      1475
      1477,      1440,      1415,      1240,      1475,      1441,      1417,      1243,      1476
      1478,      1441,      1417,      1243,      1476,      1442,      1419,      1246,      1477
      1479,      1442,      1419,      1246,      1477,      1443,      1421,      1249,      1478
      1480,      1443,      1421,      1249,      1478,      1444,      1423,      1252,      1479
      1481,        60,       111,        62,        61,      1096,      1130,      1211,      1485
      1482,      1096,      1130,      1211,      1485,      1099,      1131,      1213,      1486
      1483,      1099,      1131,      1213,      1486,      1102,      1132,      1215,      1487
      1484,      1102,      1132,      1215,      1487,      1105,      1133,      1217,      1488
      1485,      1105,      1133,      1217,      1488,      1108,      1134,      1219,      1489
      1486,       116,       117,        70,        69,      1257,      1256,      1445,      1490
      1487,      1257,      1256,      1445,      1490,      1260,      1259,      1446,      1491
      1488,      1260,      1259,      1446,      1491,      1263,      1262,      1447,      1492
      1489,      1263,      1262,      1447,      1492,      1266,      1265,      1448,      1493
      1490,      1266,      1265,      1448,      1493,      1269,      1268,      1449,      1494
      1491,       106,       107,        54,        53,      1361,      1313,      1390,      1362
      1492,      1361,      1313,      1390,      1362,      1365,      1317,      1393,      1366
      1493,      1365,      1317,      1393,      1366,      1369,      1321,      1396,      1370
      1494,      1369,      1321,      1396,      1370,      1373,      1325,      1399,      1374
      1495,      1373,      1325,      1399,      1374,      1377,      1329,      1402,      1378
      1496,       115,       116,        69,        68,      1156,      1257,      1490,      1465
      1497,      1156,      1257,      1490,      1465,      1160,      1260,      1491,      1467
      1498,      1160,      1260,      1491,      1467,      1164,      1263,      1492,      1469
      1499,      1164,      1263,      1492,      1469,      1168,      1266,      1493,      1471
      1500,      1168,      1266,      1493,      1471,      1172,      1269,      1494,      1473
      1501,       931,       854,       853,       932,      1495,      1496,      1497,      1498
      1502,      1495,      1496,      1497,      1498,      1499,      1500,      1501,      1502
      1503,      1499,      1500,      1501,      1502,      1503,      1504,      1505,      1506
      1504,      1503,      1504,      1505,      1506,      1507,      1508,      1509,      1510
      1505,      1507,      1508,      1509,      1510,      1511,      1512,      1513,      1514
      1506,       753,       654,       551,       554,      1515,      1516,      1517,      1518
      1507,      1515,      1516,      1517,      1518,      1519,      1520,      1521,      1522
      1508,      1519,      1520,      1521,      1522,      1523,      1524,      1525,      1526
      1509,      1523,      1524,      1525,      1526,      1527,      1528,      1529,      1530
      1510,      1527,      1528,      1529,      1530,      1531,      1532,      1533,      1534
      1511,        85,       814,      1014,       102,      1380,      1535,      1536,      1350
      1512,      1380,      1535,      1536,      1350,      1381,      1537,      1538,      1352
      1513,      1381,      1537,      1538,      1352,      1382,      1539,      1540,      1354
      1514,      1382,      1539,      1540,      1354,      1383,      1541,      1542,      1356
      1515,      1383,      1541,      1542,      1356,      1384,      1543,      1544,      1358
      1516,       934,       931,       932,       933,      1545,      1495,      1498,      1546
      1517,      1545,      1495,      1498,      1546,      1547,      1499,      1502,      1548
      1518,      1547,      1499,      1502,      1548,      1549,      1503,      1506,      1550
      1519,      1549,      1503,      1506,      1550,      1551,      1507,      1510,      1552
      1520,      1551,      1507,      1510,      1552,      1553,      1511,      1514,      1554
      1521,        88,      1054,       593,        87,      1311,      1555,      1556,      1078
      1522,      1311,      1555,      1556,      1078,      1315,      1557,      1558,      1082
      1523,      1315,      1557,      1558,      1082,      1319,      1559,      1560,      1086
      1524,      1319,      1559,      1560,      1086,      1323,      1561,      1562,      1090
      1525,      1323,      1561,      1562,      1090,      1327,      1563,      1564,      1094
      1526,      1054,      1053,       973,       593,      1555,      1565,      1566,      1556
      1527,      1555,      1565,      1566,      1556,      1557,      1567,      1568,      1558
      1528,      1557,      1567,      1568,      1558,      1559,      1569,      1570,      1560
      1529,      1559,      1569,      1570,      1560,      1561,      1571,      1572,      1562
      1530,      1561,      1571,      1572,      1562,      1563,      1573,      1574,      1564
      1531,        89,       694,      1054,        88,      1310,      1575,      1555,      1311
      1532,      1310,      1575,      1555,      1311,      1314,      1576,      1557,      1315
      1533,      1314,      1576,      1557,      1315,      1318,      1577,      1559,      1319
      1534,      1318,      1577,      1559,      1319,      1322,      1578,      1561,      1323
      1535,      1322,      1578,      1561,      1323,      1326,      1579,      1563,      1327
      1536,       752,       994,       652,       654,      1580,      1581,      1582,      1516
      1537,      1580,      1581,      1582,      1516,      1583,      1584,      1585,      1520
      1538,      1583,      1584,      1585,      1520,      1586,      1587,      1588,      1524
      1539,      1586,      1587,      1588,      1524,      1589,      1590,      1591,      1528
      1540,      1589,      1590,      1591,      1528,      1592,      1593,      1594,      1532
      1541,       654,       652,       653,       551,      1516,      1582,      1595,      1517
      1542,      1516,      1582,      1595,      1517,      1520,      1585,      1596,      1521
      1543,      1520,      1585,      1596,      1521,      1524,      1588,      1597,      1525
      1544,      1524,      1588,      1597,      1525,      1528,      1591,      1598,      1529
      1545,      1528,      1591,      1598,      1529,      1532,      1594,      1599,      1533
      1546,        92,       932,       853,        91,      1185,      1498,      1497,      1406
      1547,      1185,      1498,      1497,      1406,      1189,      1502,      1501,      1408
      1548,      1189,      1502,      1501,      1408,      1193,      1506,      1505,      1410
      1549,      1193,      1506,      1505,      1410,      1197,      1510,      1509,      1412
      1550,      1197,      1510,      1509,      1412,      1201,      1514,      1513,      1414
      1551,       551,       653,      1074,       552,      1517,      1595,      1600,      1601
      1552,      1517,      1595,      1600,      1601,      1521,      1596,      1602,      1603
      1553,      1521,      1596,      1602,      1603,      1525,      1597,      1604,      1605
      1554,      1525,      1597,      1604,      1605,      1529,      1598,      1606,      1607
      1555,      1529,      1598,      1606,      1607,      1533,      1599,      1608,      1609
      1556,       100,       552,      1074,        99,      1255,      1601,      1600,      1385
      1557,      1255,      1601,      1600,      1385,      1258,      1603,      1602,      1386
      1558,      1258,      1603,      1602,      1386,      1261,      1605,      1604,      1387
      1559,      1261,      1605,      1604,      1387,      1264,      1607,      1606,      1388
      1560,      1264,      1607,      1606,      1388,      1267,      1609,      1608,      1389
      1561,       793,       934,       933,       794,      1610,      1545,      1546,      1611
      1562,      1610,      1545,      1546,      1611,      1612,      1547,      1548,      1613
      1563,      1612,      1547,      1548,      1613,      1614,      1549,      1550,      1615
      1564,      1614,      1549,      1550,      1615,      1616,      1551,      1552,      1617
      1565,      1616,      1551,      1552,      1617,      1618,      1553,      1554,      1619
      1566,       752,       754,       931,       934,      1580,      1620,      1495,      1545
      1567,      1580,      1620,      1495,      1545,      1583,      1621,      1499,      1547
      1568,      1583,      1621,      1499,      1547,      1586,      1622,      1503,      1549
      1569,      1586,      1622,      1503,      1549,      1589,      1623,      1507,      1551
      1570,      1589,      1623,      1507,      1551,      1592,      1624,      1511,      1553
      1571,       594,       974,      1014,       814,      1625,      1626,      1536,      1535
      1572,      1625,      1626,      1536,      1535,      1627,      1628,      1538,      1537
      1573,      1627,      1628,      1538,      1537,      1629,      1630,      1540,      1539
      1574,      1629,      1630,      1540,      1539,      1631,      1632,      1542,      1541
      1575,      1631,      1632,      1542,      1541,      1633,      1634,      1544,      1543
      1576,        91,       853,       693,        90,      1406,      1497,      1635,      1405
      1577,      1406,      1497,      1635,      1405,      1408,      1501,      1636,      1407
      1578,      1408,      1501,      1636,      1407,      1410,      1505,      1637,      1409
      1579,      1410,      1505,      1637,      1409,      1412,      1509,      1638,      1411
      1580,      1412,      1509,      1638,      1411,      1414,      1513,      1639,      1413
      1581,       854,       694,       693,       853,      1496,      1575,      1635,      1497
      1582,      1496,      1575,      1635,      1497,      1500,      1576,      1636,      1501
      1583,      1500,      1576,      1636,      1501,      1504,      1577,      1637,      1505
      1584,      1504,      1577,      1637,      1505,      1508,      1578,      1638,      1509
      1585,      1508,      1578,      1638,      1509,      1512,      1579,      1639,      1513
      1586,       754,      1053,       854,       931,      1620,      1565,      1496,      1495
      1587,      1620,      1565,      1496,      1495,      1621,      1567,      1500,      1499
      1588,      1621,      1567,      1500,      1499,      1622,      1569,      1504,      1503
      1589,      1622,      1569,      1504,      1503,      1623,      1571,      1508,      1507
      1590,      1623,      1571,      1508,      1507,      1624,      1573,      1512,      1511
      1591,        97,       652,       994,        96,      1300,      1582,      1581,      1290
      1592,      1300,      1582,      1581,      1290,      1301,      1585,      1584,      1292
      1593,      1301,      1585,      1584,      1292,      1302,      1588,      1587,      1294
      1594,      1302,      1588,      1587,      1294,      1303,      1591,      1590,      1296
      1595,      1303,      1591,      1590,      1296,      1304,      1594,      1593,      1298
      1596,       102,      1014,       553,       101,      1350,      1536,      1640,      1351
      1597,      1350,      1536,      1640,      1351,      1352,      1538,      1641,      1353
      1598,      1352,      1538,      1641,      1353,      1354,      1540,      1642,      1355
      1599,      1354,      1540,      1642,      1355,      1356,      1542,      1643,      1357
      1600,      1356,      1542,      1643,      1357,      1358,      1544,      1644,      1359
      1601,      1053,      1054,       694,       854,      1565,      1555,      1575,      1496
      1602,      1565,      1555,      1575,      1496,      1567,      1557,      1576,      1500
      1603,      1567,      1557,      1576,      1500,      1569,      1559,      1577,      1504
      1604,      1569,      1559,      1577,      1504,      1571,      1561,      1578,      1508
      1605,      1571,      1561,      1578,      1508,      1573,      1563,      1579,      1512
      1606,       593,       973,       974,       594,      1556,      1566,      1626,      1625
      1607,      1556,      1566,      1626,      1625,      1558,      1568,      1628,      1627
      1608,      1558,      1568,      1628,      1627,      1560,      1570,      1630,      1629
      1609,      1560,      1570,      1630,      1629,      1562,      1572,      1632,      1631
      1610,      1562,      1572,      1632,      1631,      1564,      1574,      1634,      1633
      1611,        99,      1074,       653,        98,      1385,      1600,      1595,      1305
      1612,      1385,      1600,      1595,      1305,      1386,      1602,      1596,      1306
      1613,      1386,      1602,      1596,      1306,      1387,      1604,      1597,      1307
      1614,      1387,      1604,      1597,      1307,      1388,      1606,      1598,      1308
      1615,      1388,      1606,      1598,      1308,      1389,      1608,      1599,      1309
      1616,       554,       551,       552,       553,      1518,      1517,      1601,      1640
      1617,      1518,      1517,      1601,      1640,      1522,      1521,      1603,      1641
      1618,      1522,      1521,      1603,      1641,      1526,      1525,      1605,      1642
      1619,      1526,      1525,      1605,      1642,      1530,      1529,      1607,      1643
      1620,      1530,      1529,      1607,      1643,      1534,      1533,      1609,      1644
      1621,       994,       752,       934,       793,      1581,      1580,      1545,      1610
      1622,      1581,      1580,      1545,      1610,      1584,      1583,      1547,      1612
      1623,      1584,      1583,      1547,      1612,      1587,      1586,      1549,      1614
      1624,      1587,      1586,      1549,      1614,      1590,      1589,      1551,      1616
      1625,      1590,      1589,      1551,      1616,      1593,      1592,      1553,      1618
      1626,       101,       553,       552,       100,      1351,      1640,      1601,      1255
      1627,      1351,      1640,      1601,      1255,      1353,      1641,      1603,      1258
      1628,      1353,      1641,      1603,      1258,      1355,      1642,      1605,      1261
      1629,      1355,      1642,      1605,      1261,      1357,      1643,      1607,      1264
      1630,      1357,      1643,      1607,      1264,      1359,      1644,      1609,      1267
      1631,        87,       593,       594,        86,      1078,      1556,      1625,      1075
      1632,      1078,      1556,      1625,      1075,      1082,      1558,      1627,      1079
      1633,      1082,      1558,      1627,      1079,      1086,      1560,      1629,      1083
      1634,      1086,      1560,      1629,      1083,      1090,      1562,      1631,      1087
      1635,      1090,      1562,      1631,      1087,      1094,      1564,      1633,      1091
      1636,        90,       693,       694,        89,      1405,      1635,      1575,      1310
      1637,      1405,      1635,      1575,      1310,      1407,      1636,      1576,      1314
      1638,      1407,      1636,      1576,      1314,      1409,      1637,      1577,      1318
      1639,      1409,      1637,      1577,      1318,      1411,      1638,      1578,      1322
      1640,      1411,      1638,      1578,      1322,      1413,      1639,      1579,      1326
      1641,        98,       653,       652,        97,      1305,      1595,      1582,      1300
      1642,      1305,      1595,      1582,      1300,      1306,      1596,      1585,      1301
      1643,      1306,      1596,      1585,      1301,      1307,      1597,      1588,      1302
      1644,      1307,      1597,      1588,      1302,      1308,      1598,      1591,      1303
      1645,      1308,      1598,      1591,      1303,      1309,      1599,      1594,      1304
      1646,        93,       933,       932,        92,      1416,      1546,      1498,      1185
      1647,      1416,      1546,      1498,      1185,      1418,      1548,      1502,      1189
      1648,      1418,      1548,      1502,      1189,      1420,      1550,      1506,      1193
      1649,      1420,      1550,      1506,      1193,      1422,      1552,      1510,      1197
      1650,      1422,      1552,      1510,      1197,      1424,      1554,      1514,      1201
      1651,       974,       554,       553,      1014,      1626,      1518,      1640,      1536
      1652,      1626,      1518,      1640,      1536,      1628,      1522,      1641,      1538
      1653,      1628,      1522,      1641,      1538,      1630,      1526,      1642,      1540
      1654,      1630,      1526,      1642,      1540,      1632,      1530,      1643,      1542
      1655,      1632,      1530,      1643,      1542,      1634,      1534,      1644,      1544
      1656,        95,       793,       794,        94,      1291,      1610,      1611,      1435
      1657,      1291,      1610,      1611,      1435,      1293,      1612,      1613,      1436
      1658,      1293,      1612,      1613,      1436,      1295,      1614,      1615,      1437
      1659,      1295,      1614,      1615,      1437,      1297,      1616,      1617,      1438
      1660,      1297,      1616,      1617,      1438,      1299,      1618,      1619,      1439
      1661,       973,       753,       554,       974,      1566,      1515,      1518,      1626
      1662,      1566,      1515,      1518,      1626,      1568,      1519,      1522,      1628
      1663,      1568,      1519,      1522,      1628,      1570,      1523,      1526,      1630
      1664,      1570,      1523,      1526,      1630,      1572,      1527,      1530,      1632
      1665,      1572,      1527,      1530,      1632,      1574,      1531,      1534,      1634
      1666,      1053,       754,       753,       973,      1565,      1620,      1515,      1566
      1667,      1565,      1620,      1515,      1566,      1567,      1621,      1519,      1568
      1668,      1567,      1621,      1519,      1568,      1569,      1622,      1523,      1570
      1669,      1569,      1622,      1523,      1570,      1571,      1623,      1527,      1572
      1670,      1571,      1623,      1527,      1572,      1573,      1624,      1531,      1574
      1671,        86,       594,       814,        85,      1075,      1625,      1535,      1380
      1672,      1075,      1625,      1535,      1380,      1079,      1627,      1537,      1381
      1673,      1079,      1627,      1537,      1381,      1083,      1629,      1539,      1382
      1674,      1083,      1629,      1539,      1382,      1087,      1631,      1541,      1383
      1675,      1087,      1631,      1541,      1383,      1091,      1633,      1543,      1384
      1676,       754,       752,       654,       753,      1620,      1580,      1516,      1515
      1677,      1620,      1580,      1516,      1515,      1621,      1583,      1520,      1519
      1678,      1621,      1583,      1520,      1519,      1622,      1586,      1524,      1523
      1679,      1622,      1586,      1524,      1523,      1623,      1589,      1528,      1527
      1680,      1623,      1589,      1528,      1527,      1624,      1592,      1532,      1531
      1681,        94,       794,       933,        93,      1435,      1611,      1546,      1416
      1682,      1435,      1611,      1546,      1416,      1436,      1613,      1548,      1418
      1683,      1436,      1613,      1548,      1418,      1437,      1615,      1550,      1420
      1684,      1437,      1615,      1550,      1420,      1438,      1617,      1552,      1422
      1685,      1438,      1617,      1552,      1422,      1439,      1619,      1554,      1424
      1686,        96,       994,       793,        95,      1290,      1581,      1610,      1291
      1687,      1290,      1581,      1610,      1291,      1292,      1584,      1612,      1293
      1688,      1292,      1584,      1612,      1293,      1294,      1587,      1614,      1295
      1689,      1294,      1587,      1614,      1295,      1296,      1590,      1616,      1297
      1690,      1296,      1590,      1616,      1297,      1298,      1593,      1618,      1299
*****
**<?xml version="1.0" encoding="utf-8"?>
**<Altair_XML_Export>
**    <UDM xmlns:SOAP-ENV="http://schemas.xmlsoap.org/soap/envelope/" xmlns:SOAP-ENC="http://schemas.xmlsoap.org/soap/encoding/" xmlns:xsi="http://www.w3.org/2001/XMLSchema-instance" xmlns:xsd="http://www.w3.org/2001/XMLSchema" xmlns:udmcfg="http://schemas.altair.com/AltairUDMRuntimeConfig" xmlns:udmxml="http://schemas.altair.com/AltairUDM" xmlns:importrules="http://schemas.altair.com/hsm/importrules" xmlns:folderstructure="http://schemas.altair.com/hsm/folderstructure" xmlns:externalds="http://schemas.altair.com/hsm/externalds" xsi:type="udmxml:UDMCType" schemaVersion="12">
**        <udmxml:EntityCollection xsi:type="udmxml:EntityCollectionCType">
**            <udmxml:Entity xsi:type="udmxml:AssemblyDMCType" displayName="HW_Assembly" contentDefinitionType="UDMAssemblyDM" id="e534c0527b41b24ea5b272ab6acf75a6:0">
**                <udmxml:Children>
**                    <udmxml:Child xsi:type="udmxml:ChildCType" refId="d6cd6fde6baf8342a630f71aeb61911b:0" timestamp="1780404925796148" childFlags="0" groupName="boas" contentDefinitionType="UDMBOA"/>
**                </udmxml:Children>
**            </udmxml:Entity>
**            <udmxml:Entity xsi:type="udmxml:BOACType" displayName="HW_BOA" contentDefinitionType="UDMBOA" id="d6cd6fde6baf8342a630f71aeb61911b:0">
**                <udmxml:Children>
**                    <udmxml:Child xsi:type="udmxml:ChildCType" refId="8d9812096f5bdd4dbc64b21f01da6218:0" timestamp="1780404925797157" childFlags="0" groupName="parts" contentDefinitionType="UDMPartProtoOcc">
**                        <AdditionalIdList xsi:type="udmxml:AdditionalIdCType" xmlns="http://schemas.altair.com/AltairUDM" keyValue="Model" keyName="displayname" contentDefinitionType="UDMPartProtoOcc"/>
**                    </udmxml:Child>
**                </udmxml:Children>
**            </udmxml:Entity>
**            <udmxml:Entity xsi:type="udmxml:PartCType" displayName="Module Model.p" contentDefinitionType="UDMPartProto" id="153793ffd1f8bc43bc9acf2461f21293:0">
**                <udmxml:Children>
**                    <udmxml:Child xsi:type="udmxml:ChildCType" refId="5fe54b34beb993439774e32864a47fc0:0" timestamp="1780404926540007" childFlags="0" groupName="partprotoinst" contentDefinitionType="UDMPartProtoInst"/>
**                </udmxml:Children>
**            </udmxml:Entity>
**            <udmxml:Entity xsi:type="udmxml:PartCType" prototypeRefId="153793ffd1f8bc43bc9acf2461f21293:0" displayName="Model" contentDefinitionType="UDMPartProtoOcc" id="8d9812096f5bdd4dbc64b21f01da6218:0">
**                <udmxml:Attributes>
**                    <udmxml:Attribute xsi:type="udmxml:AttributeCType" valueutf8="153793ffd1f8bc43bc9acf2461f21293" type="string" name="protoref" displayName="Prototype reference">153793ffd1f8bc43bc9acf2461f21293</udmxml:Attribute>
**                    <udmxml:Attribute xsi:type="udmxml:AttributeCType" valueutf8="Components(2)" type="string" name="EntitySelectionExp">Components(2)</udmxml:Attribute>
**                    <udmxml:Attribute xsi:type="udmxml:AttributeCType" valueutf8="2" type="string" name="SelectionExp">2</udmxml:Attribute>
**                    <udmxml:Attribute xsi:type="udmxml:AttributeCType" valueutf8="43" type="string" name="UdmxmlString_HmOccurrenceColor">43</udmxml:Attribute>
**                    <udmxml:Attribute xsi:type="udmxml:AttributeCType" valueutf8="2" type="string" name="UdmxmlString_HmOccurrenceId">2</udmxml:Attribute>
**                    <udmxml:Attribute xsi:type="udmxml:AttributeCType" valueutf8="9869273" type="string" name="UdmxmlString_HmOccurrenceTrueColor">9869273</udmxml:Attribute>
**                    <udmxml:Attribute xsi:type="udmxml:AttributeCType" valueutf8="true" type="boolean" name="pseudo root">true</udmxml:Attribute>
**                </udmxml:Attributes>
**                <udmxml:Children>
**                    <udmxml:Child xsi:type="udmxml:ChildCType" refId="35e136cec6da3a46a742e705f1745177:0" timestamp="1780404926541006" childFlags="0" groupName="partprotooccs" contentDefinitionType="UDMPartProtoOcc">
**                        <AdditionalIdList xsi:type="udmxml:AdditionalIdCType" xmlns="http://schemas.altair.com/AltairUDM" keyValue="螺栓" keyName="displayname" contentDefinitionType="UDMPartProtoOcc"/>
**                    </udmxml:Child>
**                </udmxml:Children>
**            </udmxml:Entity>
**        </udmxml:EntityCollection>
**        <udmxml:RelationCollection xsi:type="udmxml:RelationCollectionCType"/>
**        <udmxml:RootEntities xsi:type="udmxml:RootEntityCollectionCType">
**            <udmxml:ItemId>e534c0527b41b24ea5b272ab6acf75a6:0</udmxml:ItemId>
**        </udmxml:RootEntities>
**    </UDM>
**</Altair_XML_Export>
**<Altair_Model_Export/>
