**
** ABAQUS Input Deck Generated by HyperMesh Version  : 2025.0.0.24
** Generated using HyperMesh-Abaqus Template Version : 2025.0.0.24-168648
** Generated on 05-26-2026 at 20:40:28
**
**   Template:  ABAQUS/STANDARD 3D
**
*NODE
       277,  6.0            ,  7.347880795E-16,  0.0            
       278,  5.638155702292 ,  -2.052120921562,  0.0            
       279,  4.5962666286122,  -3.856725693993,  0.0            
       280,  2.9999999756665,  -5.196152436756,  0.0            
       281,  1.0418890567779,  -5.9088465197  ,  0.0            
       282,  -1.041889056778,  -5.9088465197  ,  0.0            
       283,  -2.999999975666,  -5.196152436756,  0.0            
       284,  -4.596266628612,  -3.856725693993,  0.0            
       285,  -5.638155702292,  -2.052120921562,  0.0            
       286,  -6.0           ,  0.0            ,  0.0            
       287,  -5.638155724715,  2.052120859954 ,  0.0            
       288,  -4.596266658714,  3.8567256581192,  0.0            
       289,  -3.0           ,  5.1961524227066,  0.0            
       290,  -1.041889066002,  5.9088465180732,  0.0            
       291,  1.0418890660016,  5.9088465180733,  0.0            
       292,  3.0            ,  5.1961524227066,  0.0            
       293,  4.5962666587138,  3.8567256581193,  0.0            
       294,  5.6381557247154,  2.052120859954 ,  0.0            
       295,  4.7452965606394,  -0.050177382352,  0.0            
       296,  0.8778262957762,  -4.664067557826,  0.0            
       297,  -4.745131282466,  0.0485147238929,  0.0            
       298,  -0.8777981038  ,  4.6632265741069,  0.0            
       299,  2.0706460731238,  -3.80906569015 ,  0.0            
       300,  3.2144185588219,  -2.693658379837,  0.0            
       301,  4.1123533207569,  -1.372269095489,  0.0            
       302,  -4.068822140254,  -1.21605608372 ,  0.0            
       303,  -3.107170383904,  -2.461217401291,  0.0            
       304,  -1.877215959178,  -3.491485670351,  0.0            
       305,  -0.483253753828,  -4.219711921242,  0.0            
       306,  -2.070749546108,  3.8077319338089,  0.0            
       307,  -3.214517306538,  2.691963070222 ,  0.0            
       308,  -4.112434674664,  1.370272666023 ,  0.0            
       309,  4.0693071810842,  1.2140416432883,  0.0            
       310,  3.1076940833524,  2.4594262838668,  0.0            
       311,  1.8776485962299,  3.4899834266974,  0.0            
       312,  0.4834411185781,  4.2185510236312,  0.0            
       313,  -0.613011030512,  -1.958144524386,  0.0            
       314,  0.6201491694925,  -0.519881431921,  0.0            
       315,  1.8179251090872,  0.9479739154184,  0.0            
       316,  1.8808125576598,  -1.574849212925,  0.0            
       317,  0.7055118229197,  -2.848027397874,  0.0            
       318,  2.9268388485482,  -0.193700032297,  0.0            
       319,  -1.880642346057,  1.5723109626347,  0.0            
       320,  -0.619690585976,  0.5172113018498,  0.0            
       321,  -2.926543436269,  0.1908878737682,  0.0            
       322,  -1.817425616904,  -0.950676594601,  0.0            
       323,  -0.705403094003,  2.8459800017777,  0.0            
       324,  0.6134530751847,  1.955723294407 ,  0.0            
       325,  4.7432864595901,  -0.050144573674,  10.0           
       326,  4.1093409311878,  -1.371074959933,  10.0           
       327,  5.6334043378214,  -2.050584797755,  10.0           
       328,  5.9999996554171,  9.231349763E-09,  10.0           
       329,  4.7412764432439,  -0.050111738074,  20.0           
       330,  4.1063285986625,  -1.369880833643,  20.0           
       331,  5.6286530279996,  -2.049048685339,  20.0           
       332,  5.9999993848355,  1.469708043E-08,  20.0           
       333,  4.7392665116285,  -0.050078875544,  30.0           
       334,  4.1033163232044,  -1.368686716658,  30.0           
       335,  5.6239017728674,  -2.047512584329,  30.0           
       336,  5.999999188255 ,  1.639719922E-08,  30.0           
       337,  4.737769215169 ,  -0.050044722035,  40.0           
       338,  4.1003832461637,  -1.366619935303,  40.0           
       339,  5.619150572425 ,  -2.045976494724,  40.0           
       340,  5.9999990656671,  1.441630203E-08,  40.0           
       341,  3.211347286495 ,  -2.691000807092,  10.0           
       342,  4.5907684427432,  -3.852180073058,  10.0           
       343,  3.2082760626053,  -2.688343265283,  20.0           
       344,  4.5852702660045,  -3.847634458161,  20.0           
       345,  3.2052048872012,  -2.685685754445,  30.0           
       346,  4.5797720983962,  -3.8430888493  ,  30.0           
       347,  3.2018662318108,  -2.682346256938,  40.0           
       348,  4.5742739399181,  -3.838543246478,  40.0           
       349,  2.068674923283 ,  -3.80569906718 ,  10.0           
       350,  2.9969116372408,  -5.190523628851,  10.0           
       351,  2.0667038277996,  -3.80233252793 ,  20.0           
       352,  2.993823334753 ,  -5.184894872218,  20.0           
       353,  2.064732786746 ,  -3.798966072446,  30.0           
       354,  2.990735068255 ,  -5.179266166946,  30.0           
       355,  2.0620921791856,  -3.795418154738,  40.0           
       356,  2.9876468377468,  -5.173637513034,  40.0           
       357,  0.8771541795542,  -4.661043113942,  10.0           
       358,  1.0415368259668,  -5.906014598968,  10.0           
       359,  0.8764820969564,  -4.658018888715,  20.0           
       360,  1.0411847018236,  -5.903183119055,  20.0           
       361,  0.8758100479839,  -4.65499488222 ,  30.0           
       362,  1.0408326843669,  -5.900352080067,  30.0           
       363,  0.8748430240939,  -4.65221771939 ,  40.0           
       364,  1.0404807735967,  -5.897521482002,  40.0           
       365,  -0.482943525277,  -4.216882053266,  10.0           
       366,  -1.041537451854,  -5.906015157349,  10.0           
       367,  -0.482633357564,  -4.214052309088,  20.0           
       368,  -1.041185847862,  -5.903183863576,  20.0           
       369,  -0.482323250778,  -4.211222688767,  30.0           
       370,  -1.040834244813,  -5.900352638446,  30.0           
       371,  -0.481898551837,  -4.208529568278,  40.0           
       372,  -1.040482642706,  -5.897521481958,  40.0           
       373,  -1.875425799032,  -3.488286364678,  10.0           
       374,  -2.996911765653,  -5.190523145376,  10.0           
       375,  -1.87363577269 ,  -3.485087214628,  20.0           
       376,  -2.993823817433,  -5.184894227594,  20.0           
       377,  -1.87184588024 ,  -3.481888220266,  30.0           
       378,  -2.990736131042,  -5.179265683467,  30.0           
       379,  -1.86950286319 ,  -3.478645960456,  40.0           
       380,  -2.98764870648 ,  -5.173637512998,  40.0           
       381,  -3.104194897429,  -2.458707249803,  10.0           
       382,  -4.59076884489 ,  -3.852180030251,  10.0           
       383,  -3.101219500697,  -2.456197162538,  20.0           
       384,  -4.585271113545,  -3.847634401127,  20.0           
       385,  -3.098244193764,  -2.453687139576,  30.0           
       386,  -4.579773434653,  -3.843088806687,  30.0           
       387,  -3.094988048707,  -2.450688720393,  40.0           
       388,  -4.574275808213,  -3.838543246929,  40.0           
       389,  -4.06584673872 ,  -1.214965130627,  10.0           
       390,  -5.633404683839,  -2.050584723057,  10.0           
       391,  -4.062871429192,  -1.213874205645,  20.0           
       392,  -5.628653800812,  -2.04904858571 ,  20.0           
       393,  -4.059896211682,  -1.21278330884 ,  30.0           
       394,  -5.623903053248,  -2.047512509535,  30.0           
       395,  -4.05706162918 ,  -1.21073089694 ,  40.0           
       396,  -5.619152441149,  -2.045976494533,  40.0           
       397,  -4.743121776922,  0.0484832006867,  10.0           
       398,  -6.000000233583,  3.604075692E-09,  10.0           
       399,  -4.741112354418,  0.0484517104256,  20.0           
       400,  -6.000000467166,  7.208151384E-09,  20.0           
       401,  -4.739103014968,  0.0484202530965,  30.0           
       402,  -6.00000070075 ,  1.081222708E-08,  30.0           
       403,  -4.737655333682,  0.0486000913421,  40.0           
       404,  -6.000000934333,  1.441630277E-08,  40.0           
       405,  -4.109422558146,  1.3690800020347,  10.0           
       406,  -5.633404609953,  2.0505846255244,  10.0           
       407,  -4.106410586641,  1.3678874661984,  20.0           
       408,  -5.62865369423 ,  2.049048480976 ,  20.0           
       409,  -4.103398760157,  1.3666950585431,  30.0           
       410,  -5.623902977548,  2.0475124263098,  30.0           
       411,  -4.100458776506,  1.3646798837336,  40.0           
       412,  -5.619152459908,  2.0459764615264,  40.0           
       413,  -3.211446156472,  2.6893065597034,  10.0           
       414,  -4.590768196818,  3.8521792764854,  10.0           
       415,  -3.208375234596,  2.6866503067616,  20.0           
       416,  -4.585270239362,  3.847633412827 ,  20.0           
       417,  -3.205304540964,  2.6839943114266,  30.0           
       418,  -4.579772786395,  3.8430880671854,  30.0           
       419,  -3.20196217626 ,  2.6806676502647,  40.0           
       420,  -4.574275837919,  3.8385432395651,  40.0           
       421,  -2.068778674799,  3.8043662154638,  10.0           
       422,  -2.996911975344,  5.1905232021875,  10.0           
       423,  -2.066807931114,  3.8010007142833,  20.0           
       424,  -2.993824089003,  5.1848943129685,  20.0           
       425,  -2.064837315117,  3.7976354302775,  30.0           
       426,  -2.990736341   ,  5.1792657550892,  30.0           
       427,  -2.062195581501,  3.7940915146174,  40.0           
       428,  -2.987648731332,  5.173637528547 ,  40.0           
       429,  -0.877126501227,  4.6602029494782,  10.0           
       430,  -1.041537461793,  5.9060152200835,  10.0           
       431,  -0.876454915628,  4.657179463587 ,  20.0           
       432,  -1.041185858005,  5.9031839527259,  20.0           
       433,  -0.875783346996,  4.6541561164452,  30.0           
       434,  -1.040834254638,  5.9003527160001,  30.0           
       435,  -0.874815816923,  4.6513798374477,  40.0           
       436,  -1.040482651692,  5.8975215099062,  40.0           
       437,  0.4831302547426,  4.2157220627674,  10.0           
       438,  1.0415369677368,  5.9060151521154,  10.0           
       439,  0.4828194687145,  4.2128932626873,  20.0           
       440,  1.0411848878467,  5.9031838620984,  20.0           
       441,  0.4825087605821,  4.2100646234031,  30.0           
       442,  1.0408328263315,  5.900352648023 ,  30.0           
       443,  0.4820833754777,  4.207371984661 ,  40.0           
       444,  1.0404807831912,  5.8975215098899,  40.0           
       445,  1.8758575476851,  3.4867851943596,  10.0           
       446,  2.9969111311555,  5.1905228651976,  10.0           
       447,  1.8740666941717,  3.4835872310403,  20.0           
       448,  2.9938226519079,  5.1848938636762,  20.0           
       449,  1.8722760357736,  3.4803895367813,  30.0           
       450,  2.9907345622859,  5.179265418191 ,  30.0           
       451,  1.86993235619  ,  3.477148510734 ,  40.0           
       452,  2.9876468622928,  5.1736375287468,  40.0           
       453,  3.1047175941048,  2.4569174356713,  10.0           
       454,  4.5907680026498,  3.8521797337809,  10.0           
       455,  3.1017412857994,  2.4544087701945,  20.0           
       456,  4.5852696689911,  3.8476340226177,  20.0           
       457,  3.0987651584882,  2.4519002874948,  30.0           
       458,  4.579771657769 ,  3.8430885246562,  30.0           
       459,  3.0955089557771,  2.4489036050555,  40.0           
       460,  4.5742739689822,  3.8385432398954,  40.0           
       461,  4.0663309144256,  1.2129522580162,  10.0           
       462,  5.6334042201895,  2.0505847143297,  10.0           
       463,  4.0633547587149,  1.211862965471 ,  20.0           
       464,  5.6286528630251,  2.04904859942  ,  20.0           
       465,  4.0603787139896,  1.210773765717 ,  30.0           
       466,  5.6239016533409,  2.047512515268 ,  30.0           
       467,  4.057631508104 ,  1.2086859138759,  40.0           
       468,  5.6191505911364,  2.0459764618738,  40.0           
       469,  0.7048282088992,  -2.845735400743,  10.0           
       470,  -0.612456938186,  -1.956424196494,  10.0           
       471,  0.7041445855402,  -2.843443460728,  20.0           
       472,  -0.611902900063,  -1.954703911227,  20.0           
       473,  0.7034609528301,  -2.841151577862,  30.0           
       474,  -0.611348916182,  -1.952983668624,  30.0           
       475,  0.7024270999767,  -2.838821718125,  40.0           
       476,  -0.610684662483,  -1.95120206208 ,  40.0           
       477,  1.8791596864396,  -1.573458405737,  10.0           
       478,  0.6196096459499,  -0.519443090593,  10.0           
       479,  1.8775068451564,  -1.572067600616,  20.0           
       480,  0.6190701312613,  -0.519004711496,  20.0           
       481,  1.8758540338278,  -1.570676797582,  30.0           
       482,  0.6185306254295,  -0.518566294643,  30.0           
       483,  1.8738665336549,  -1.569023684395,  40.0           
       484,  0.6179735412558,  -0.518096435542,  40.0           
       485,  2.9245646770332,  -0.193561034916,  10.0           
       486,  1.8163381566671,  0.9470428268642,  10.0           
       487,  2.922290564966 ,  -0.193421989336,  20.0           
       488,  1.8147512826127,  0.9461118482481,  20.0           
       489,  2.9200165123549,  -0.193282895549,  30.0           
       490,  1.8131644869502,  0.9451809795928,  30.0           
       491,  2.9177633983936,  -0.1931591892  ,  40.0           
       492,  1.8115307104223,  0.944034465024 ,  40.0           
       493,  -1.87898997801 ,  1.5709220376216,  10.0           
       494,  -2.92426991299 ,  0.1907510313406,  10.0           
       495,  -1.877337702278,  1.5695332570968,  20.0           
       496,  -2.921996478393,  0.1906142515108,  20.0           
       497,  -1.875685518876,  1.5681446210633,  30.0           
       498,  -2.919723132475,  0.1904775342591,  30.0           
       499,  -1.873750737681,  1.5664807547103,  40.0           
       500,  -2.917466131539,  0.1903255886052,  40.0           
       501,  -0.61915185921 ,  0.5167749769938,  10.0           
       502,  -1.815839533639,  -0.949743451262,  10.0           
       503,  -0.618613154319,  0.5163387396092,  20.0           
       504,  -1.814253514287,  -0.948810300316,  20.0           
       505,  -0.618074471302,  0.5159025896877,  30.0           
       506,  -1.812667558872,  -0.947877141805,  30.0           
       507,  -0.617401446549,  0.5154271240833,  40.0           
       508,  -1.811015576577,  -0.946723433295,  40.0           
       509,  -0.704719988722,  2.8436895359114,  10.0           
       510,  -0.704036901585,  2.8413992343003,  20.0           
       511,  -0.703353832575,  2.8391090969446,  30.0           
       512,  -0.702282803138,  2.8367577316297,  40.0           
       513,  0.6128981659239,  1.9540047923643,  10.0           
       514,  0.6123433196741,  1.95228644875  ,  20.0           
       515,  0.6117885364752,  1.9505682635796,  30.0           
       516,  0.6112329743631,  1.9487142985171,  40.0           
       517,  9.9311487414179,  -5.891147427214,  40.0           
       518,  8.253239124732 ,  -6.833656324751,  40.0           
       519,  6.5753295080462,  -7.776165222288,  40.0           
       520,  4.8974198913603,  -8.718674119825,  40.0           
       521,  3.2195102746744,  -9.661183017362,  40.0           
       522,  1.5416006579885,  -10.6036919149 ,  40.0           
       523,  -0.136308958697,  -11.54620081244,  40.0           
       524,  -1.7915004156  ,  -10.5643429079 ,  40.0           
       525,  -3.446691872503,  -9.582485003365,  40.0           
       526,  -5.101883329406,  -8.60062709883 ,  40.0           
       527,  -6.757074786309,  -7.618769194294,  40.0           
       528,  -8.412266243212,  -6.636911289758,  40.0           
       529,  -10.06745770012,  -5.655053385223,  40.0           
       530,  -10.04473954033,  -3.73068658315 ,  40.0           
       531,  -10.02202138055,  -1.806319781077,  40.0           
       532,  -9.999303220767,  0.1180470209954,  40.0           
       533,  -9.976585060984,  2.0424138230681,  40.0           
       534,  -9.953866901201,  3.9667806251409,  40.0           
       535,  -9.931148741418,  5.8911474272137,  40.0           
       536,  -8.253239124732,  6.8336563247508,  40.0           
       537,  -6.575329508046,  7.776165222288 ,  40.0           
       538,  -4.89741989136 ,  8.7186741198252,  40.0           
       539,  -3.219510274674,  9.6611830173623,  40.0           
       540,  -1.541600657988,  10.6036919149  ,  40.0           
       541,  0.1363089586974,  11.546200812437,  40.0           
       542,  1.7915004156004,  10.564342907901,  40.0           
       543,  3.4466918725034,  9.5824850033654,  40.0           
       544,  5.1018833294064,  8.6006270988298,  40.0           
       545,  6.7570747863094,  7.6187691942942,  40.0           
       546,  8.4122662432124,  6.6369112897586,  40.0           
       547,  10.067457700115,  5.655053385223 ,  40.0           
       548,  10.044739540332,  3.7306865831502,  40.0           
       549,  10.02202138055 ,  1.8063197810774,  40.0           
       550,  9.9993032207666,  -0.118047020995,  40.0           
       551,  9.9765850609837,  -2.042413823068,  40.0           
       552,  9.9538669012008,  -3.966780625141,  40.0           
       553,  -6.000000000092,  1.452982570E-12,  40.0           
       554,  -5.637045463799,  -2.051718327487,  40.0           
       555,  -4.596118877139,  -3.856600613941,  40.0           
       556,  -2.999377254773,  -5.19508281402 ,  40.0           
       557,  -1.041772581775,  -5.908149918207,  40.0           
       558,  1.0417122480234,  -5.907807404108,  40.0           
       559,  2.9995310494277,  -5.195352115988,  40.0           
       560,  4.5956333305659,  -3.856185117786,  40.0           
       561,  5.6371956583331,  -2.051775619621,  40.0           
       562,  5.9999990656671,  1.441631875E-08,  40.0           
       563,  5.6381557247505,  2.0521208598576,  40.0           
       564,  4.5962664145596,  3.856725949091 ,  40.0           
       565,  3.0000001137675,  5.1961523570229,  40.0           
       566,  1.0418889827178,  5.9088465327584,  40.0           
       567,  -1.04188903295 ,  5.9088465239011,  40.0           
       568,  -3.00000000524 ,  5.1961524196813,  40.0           
       569,  -4.59626621178 ,  3.8567261907548,  40.0           
       570,  -5.638155728294,  2.052120850121 ,  40.0           
       571,  -7.543631835584,  -4.207142814579,  40.0           
       572,  -5.778655431418,  -5.579168867692,  40.0           
       573,  -4.034095986678,  -6.824998023326,  40.0           
       574,  -2.215219989261,  -7.826734858152,  40.0           
       575,  -7.885693756451,  -1.994958457856,  40.0           
       576,  -0.128297119865,  -8.63659890166 ,  40.0           
       577,  -7.928069899153,  0.0811677198528,  40.0           
       578,  -7.721227274341,  2.2150138347247,  40.0           
       579,  1.9422415501761,  -7.793847200335,  40.0           
       580,  -7.415622378822,  4.4295582706988,  40.0           
       581,  3.8935766407463,  -6.90616976507 ,  40.0           
       582,  5.6705322666216,  -5.831785037927,  40.0           
       583,  -5.670798554508,  5.8320630129838,  40.0           
       584,  -3.893795062556,  6.9065470615791,  40.0           
       585,  7.4153345996379,  -4.429407787853,  40.0           
       586,  -1.942363279402,  7.794281666365 ,  40.0           
       587,  7.7208500604331,  -2.214924615038,  40.0           
       588,  7.9280722813084,  -0.081142805067,  40.0           
       589,  0.1282960058458,  8.6368951329908,  40.0           
       590,  7.8861141533106,  1.9950267410732,  40.0           
       591,  2.2153148377981,  7.8270871972945,  40.0           
       592,  4.0343476815404,  6.8253989689347,  40.0           
       593,  5.7788639605767,  5.5792771010748,  40.0           
       594,  7.5439185922215,  4.207339905795 ,  40.0           
**HW_COMPONENT     ID=3     COLOR=43     NAME=网格
*ELEMENT,TYPE=S3
       199,       575,       554,       571
       203,       574,       557,       576
       215,       583,       569,       580
       220,       582,       560,       585
       232,       591,       566,       589
       236,       590,       563,       594
**HW_COMPONENT     ID=3     COLOR=43     NAME=网格
*ELEMENT,TYPE=S4
         1,       295,       277,       278,       301
         2,       301,       278,       279,       300
         3,       300,       279,       280,       299
         4,       299,       280,       281,       296
         5,       296,       281,       282,       305
         6,       305,       282,       283,       304
         7,       304,       283,       284,       303
         8,       303,       284,       285,       302
         9,       302,       285,       286,       297
        10,       297,       286,       287,       308
        11,       308,       287,       288,       307
        12,       307,       288,       289,       306
        13,       306,       289,       290,       298
        14,       298,       290,       291,       312
        15,       312,       291,       292,       311
        16,       311,       292,       293,       310
        17,       310,       293,       294,       309
        18,       309,       294,       277,       295
        19,       304,       313,       317,       305
        20,       305,       317,       299,       296
        21,       313,       314,       316,       317
        22,       317,       316,       300,       299
        23,       314,       315,       318,       316
        24,       316,       318,       301,       300
        25,       315,       310,       309,       318
        26,       318,       309,       295,       301
        27,       319,       321,       308,       307
        28,       321,       302,       297,       308
        29,       314,       313,       322,       320
        30,       320,       322,       321,       319
        31,       313,       304,       303,       322
        32,       322,       303,       302,       321
        33,       312,       323,       306,       298
        34,       323,       319,       307,       306
        35,       310,       315,       324,       311
        36,       311,       324,       323,       312
        37,       315,       314,       320,       324
        38,       324,       320,       319,       323
       191,       529,       530,       571,       528
       192,       528,       571,       572,       527
       193,       526,       527,       572,       573
       194,       575,       571,       530,       531
       195,       573,       574,       525,       526
       196,       574,       576,       524,       525
       197,       523,       524,       576,       522
       198,       554,       555,       572,       571
       200,       577,       575,       531,       532
       201,       573,       572,       555,       556
       202,       556,       557,       574,       573
       204,       532,       533,       578,       577
       205,       553,       554,       575,       577
       206,       522,       576,       579,       521
       207,       557,       558,       579,       576
       208,       577,       578,       570,       553
       209,       534,       580,       578,       533
       210,       520,       521,       579,       581
       211,       581,       579,       558,       559
       212,       535,       536,       580,       534
       213,       569,       570,       578,       580
       214,       581,       582,       519,       520
       216,       559,       560,       582,       581
       217,       583,       580,       536,       537
       218,       582,       585,       518,       519
       219,       568,       569,       583,       584
       221,       584,       583,       537,       538
       222,       560,       561,       587,       585
       223,       517,       518,       585,       552
       224,       584,       586,       567,       568
       225,       538,       539,       586,       584
       226,       552,       585,       587,       551
       227,       588,       587,       561,       562
       228,       566,       567,       586,       589
       229,       540,       589,       586,       539
       230,       562,       563,       590,       588
       231,       550,       551,       587,       588
       233,       565,       566,       591,       592
       234,       592,       593,       564,       565
       235,       588,       590,       549,       550
       237,       563,       564,       593,       594
       238,       541,       542,       589,       540
       239,       591,       589,       542,       543
       240,       592,       591,       543,       544
       241,       590,       594,       548,       549
       242,       544,       545,       593,       592
       243,       546,       594,       593,       545
       244,       547,       548,       594,       546
**HW_COMPONENT     ID=3     COLOR=43     NAME=网格
*ELEMENT,TYPE=C3D8I
        39,       295,       301,       278,       277,       325,       326,       327,       328
        40,       325,       326,       327,       328,       329,       330,       331,       332
        41,       329,       330,       331,       332,       333,       334,       335,       336
        42,       333,       334,       335,       336,       337,       338,       339,       340
        43,       301,       300,       279,       278,       326,       341,       342,       327
        44,       326,       341,       342,       327,       330,       343,       344,       331
        45,       330,       343,       344,       331,       334,       345,       346,       335
        46,       334,       345,       346,       335,       338,       347,       348,       339
        47,       300,       299,       280,       279,       341,       349,       350,       342
        48,       341,       349,       350,       342,       343,       351,       352,       344
        49,       343,       351,       352,       344,       345,       353,       354,       346
        50,       345,       353,       354,       346,       347,       355,       356,       348
        51,       299,       296,       281,       280,       349,       357,       358,       350
        52,       349,       357,       358,       350,       351,       359,       360,       352
        53,       351,       359,       360,       352,       353,       361,       362,       354
        54,       353,       361,       362,       354,       355,       363,       364,       356
        55,       296,       305,       282,       281,       357,       365,       366,       358
        56,       357,       365,       366,       358,       359,       367,       368,       360
        57,       359,       367,       368,       360,       361,       369,       370,       362
        58,       361,       369,       370,       362,       363,       371,       372,       364
        59,       305,       304,       283,       282,       365,       373,       374,       366
        60,       365,       373,       374,       366,       367,       375,       376,       368
        61,       367,       375,       376,       368,       369,       377,       378,       370
        62,       369,       377,       378,       370,       371,       379,       380,       372
        63,       304,       303,       284,       283,       373,       381,       382,       374
        64,       373,       381,       382,       374,       375,       383,       384,       376
        65,       375,       383,       384,       376,       377,       385,       386,       378
        66,       377,       385,       386,       378,       379,       387,       388,       380
        67,       303,       302,       285,       284,       381,       389,       390,       382
        68,       381,       389,       390,       382,       383,       391,       392,       384
        69,       383,       391,       392,       384,       385,       393,       394,       386
        70,       385,       393,       394,       386,       387,       395,       396,       388
        71,       302,       297,       286,       285,       389,       397,       398,       390
        72,       389,       397,       398,       390,       391,       399,       400,       392
        73,       391,       399,       400,       392,       393,       401,       402,       394
        74,       393,       401,       402,       394,       395,       403,       404,       396
        75,       297,       308,       287,       286,       397,       405,       406,       398
        76,       397,       405,       406,       398,       399,       407,       408,       400
        77,       399,       407,       408,       400,       401,       409,       410,       402
        78,       401,       409,       410,       402,       403,       411,       412,       404
        79,       308,       307,       288,       287,       405,       413,       414,       406
        80,       405,       413,       414,       406,       407,       415,       416,       408
        81,       407,       415,       416,       408,       409,       417,       418,       410
        82,       409,       417,       418,       410,       411,       419,       420,       412
        83,       307,       306,       289,       288,       413,       421,       422,       414
        84,       413,       421,       422,       414,       415,       423,       424,       416
        85,       415,       423,       424,       416,       417,       425,       426,       418
        86,       417,       425,       426,       418,       419,       427,       428,       420
        87,       306,       298,       290,       289,       421,       429,       430,       422
        88,       421,       429,       430,       422,       423,       431,       432,       424
        89,       423,       431,       432,       424,       425,       433,       434,       426
        90,       425,       433,       434,       426,       427,       435,       436,       428
        91,       298,       312,       291,       290,       429,       437,       438,       430
        92,       429,       437,       438,       430,       431,       439,       440,       432
        93,       431,       439,       440,       432,       433,       441,       442,       434
        94,       433,       441,       442,       434,       435,       443,       444,       436
        95,       312,       311,       292,       291,       437,       445,       446,       438
        96,       437,       445,       446,       438,       439,       447,       448,       440
        97,       439,       447,       448,       440,       441,       449,       450,       442
        98,       441,       449,       450,       442,       443,       451,       452,       444
        99,       311,       310,       293,       292,       445,       453,       454,       446
       100,       445,       453,       454,       446,       447,       455,       456,       448
       101,       447,       455,       456,       448,       449,       457,       458,       450
       102,       449,       457,       458,       450,       451,       459,       460,       452
       103,       310,       309,       294,       293,       453,       461,       462,       454
       104,       453,       461,       462,       454,       455,       463,       464,       456
       105,       455,       463,       464,       456,       457,       465,       466,       458
       106,       457,       465,       466,       458,       459,       467,       468,       460
       107,       309,       295,       277,       294,       461,       325,       328,       462
       108,       461,       325,       328,       462,       463,       329,       332,       464
       109,       463,       329,       332,       464,       465,       333,       336,       466
       110,       465,       333,       336,       466,       467,       337,       340,       468
       111,       304,       305,       317,       313,       373,       365,       469,       470
       112,       373,       365,       469,       470,       375,       367,       471,       472
       113,       375,       367,       471,       472,       377,       369,       473,       474
       114,       377,       369,       473,       474,       379,       371,       475,       476
       115,       305,       296,       299,       317,       365,       357,       349,       469
       116,       365,       357,       349,       469,       367,       359,       351,       471
       117,       367,       359,       351,       471,       369,       361,       353,       473
       118,       369,       361,       353,       473,       371,       363,       355,       475
       119,       313,       317,       316,       314,       470,       469,       477,       478
       120,       470,       469,       477,       478,       472,       471,       479,       480
       121,       472,       471,       479,       480,       474,       473,       481,       482
       122,       474,       473,       481,       482,       476,       475,       483,       484
       123,       317,       299,       300,       316,       469,       349,       341,       477
       124,       469,       349,       341,       477,       471,       351,       343,       479
       125,       471,       351,       343,       479,       473,       353,       345,       481
       126,       473,       353,       345,       481,       475,       355,       347,       483
       127,       314,       316,       318,       315,       478,       477,       485,       486
       128,       478,       477,       485,       486,       480,       479,       487,       488
       129,       480,       479,       487,       488,       482,       481,       489,       490
       130,       482,       481,       489,       490,       484,       483,       491,       492
       131,       316,       300,       301,       318,       477,       341,       326,       485
       132,       477,       341,       326,       485,       479,       343,       330,       487
       133,       479,       343,       330,       487,       481,       345,       334,       489
       134,       481,       345,       334,       489,       483,       347,       338,       491
       135,       315,       318,       309,       310,       486,       485,       461,       453
       136,       486,       485,       461,       453,       488,       487,       463,       455
       137,       488,       487,       463,       455,       490,       489,       465,       457
       138,       490,       489,       465,       457,       492,       491,       467,       459
       139,       318,       301,       295,       309,       485,       326,       325,       461
       140,       485,       326,       325,       461,       487,       330,       329,       463
       141,       487,       330,       329,       463,       489,       334,       333,       465
       142,       489,       334,       333,       465,       491,       338,       337,       467
       143,       319,       307,       308,       321,       493,       413,       405,       494
       144,       493,       413,       405,       494,       495,       415,       407,       496
       145,       495,       415,       407,       496,       497,       417,       409,       498
       146,       497,       417,       409,       498,       499,       419,       411,       500
       147,       321,       308,       297,       302,       494,       405,       397,       389
       148,       494,       405,       397,       389,       496,       407,       399,       391
       149,       496,       407,       399,       391,       498,       409,       401,       393
       150,       498,       409,       401,       393,       500,       411,       403,       395
       151,       314,       320,       322,       313,       478,       501,       502,       470
       152,       478,       501,       502,       470,       480,       503,       504,       472
       153,       480,       503,       504,       472,       482,       505,       506,       474
       154,       482,       505,       506,       474,       484,       507,       508,       476
       155,       320,       319,       321,       322,       501,       493,       494,       502
       156,       501,       493,       494,       502,       503,       495,       496,       504
       157,       503,       495,       496,       504,       505,       497,       498,       506
       158,       505,       497,       498,       506,       507,       499,       500,       508
       159,       313,       322,       303,       304,       470,       502,       381,       373
       160,       470,       502,       381,       373,       472,       504,       383,       375
       161,       472,       504,       383,       375,       474,       506,       385,       377
       162,       474,       506,       385,       377,       476,       508,       387,       379
       163,       322,       321,       302,       303,       502,       494,       389,       381
       164,       502,       494,       389,       381,       504,       496,       391,       383
       165,       504,       496,       391,       383,       506,       498,       393,       385
       166,       506,       498,       393,       385,       508,       500,       395,       387
       167,       312,       298,       306,       323,       437,       429,       421,       509
       168,       437,       429,       421,       509,       439,       431,       423,       510
       169,       439,       431,       423,       510,       441,       433,       425,       511
       170,       441,       433,       425,       511,       443,       435,       427,       512
       171,       323,       306,       307,       319,       509,       421,       413,       493
       172,       509,       421,       413,       493,       510,       423,       415,       495
       173,       510,       423,       415,       495,       511,       425,       417,       497
       174,       511,       425,       417,       497,       512,       427,       419,       499
       175,       310,       311,       324,       315,       453,       445,       513,       486
       176,       453,       445,       513,       486,       455,       447,       514,       488
       177,       455,       447,       514,       488,       457,       449,       515,       490
       178,       457,       449,       515,       490,       459,       451,       516,       492
       179,       311,       312,       323,       324,       445,       437,       509,       513
       180,       445,       437,       509,       513,       447,       439,       510,       514
       181,       447,       439,       510,       514,       449,       441,       511,       515
       182,       449,       441,       511,       515,       451,       443,       512,       516
       183,       315,       324,       320,       314,       486,       513,       501,       478
       184,       486,       513,       501,       478,       488,       514,       503,       480
       185,       488,       514,       503,       480,       490,       515,       505,       482
       186,       490,       515,       505,       482,       492,       516,       507,       484
       187,       324,       323,       319,       320,       513,       509,       493,       501
       188,       513,       509,       493,       501,       514,       510,       495,       503
       189,       514,       510,       495,       503,       515,       511,       497,       505
       190,       515,       511,       497,       505,       516,       512,       499,       507
*****
**<?xml version="1.0" encoding="utf-8"?>
**<Altair_XML_Export>
**    <UDM xmlns:SOAP-ENV="http://schemas.xmlsoap.org/soap/envelope/" xmlns:SOAP-ENC="http://schemas.xmlsoap.org/soap/encoding/" xmlns:xsi="http://www.w3.org/2001/XMLSchema-instance" xmlns:xsd="http://www.w3.org/2001/XMLSchema" xmlns:udmcfg="http://schemas.altair.com/AltairUDMRuntimeConfig" xmlns:udmxml="http://schemas.altair.com/AltairUDM" xmlns:importrules="http://schemas.altair.com/hsm/importrules" xmlns:folderstructure="http://schemas.altair.com/hsm/folderstructure" xmlns:externalds="http://schemas.altair.com/hsm/externalds" xsi:type="udmxml:UDMCType" schemaVersion="12">
**        <udmxml:EntityCollection xsi:type="udmxml:EntityCollectionCType">
**            <udmxml:Entity xsi:type="udmxml:AssemblyDMCType" displayName="HW_Assembly" contentDefinitionType="UDMAssemblyDM" id="1f0f9d2577223a45b4221a7041bfb33c:0">
**                <udmxml:Children>
**                    <udmxml:Child xsi:type="udmxml:ChildCType" refId="5e5651dc6d3a704b914c3a3649f1aeb3:0" timestamp="1779799054406780" childFlags="0" groupName="boas" contentDefinitionType="UDMBOA"/>
**                </udmxml:Children>
**            </udmxml:Entity>
**            <udmxml:Entity xsi:type="udmxml:BOACType" displayName="HW_BOA" contentDefinitionType="UDMBOA" id="5e5651dc6d3a704b914c3a3649f1aeb3:0">
**                <udmxml:Children>
**                    <udmxml:Child xsi:type="udmxml:ChildCType" refId="e4df15106b0cdc4eb8558ac677cf47c4:0" timestamp="1779799054406780" childFlags="0" groupName="parts" contentDefinitionType="UDMPartProtoOcc">
**                        <AdditionalIdList xsi:type="udmxml:AdditionalIdCType" xmlns="http://schemas.altair.com/AltairUDM" keyValue="Model" keyName="displayname" contentDefinitionType="UDMPartProtoOcc"/>
**                    </udmxml:Child>
**                </udmxml:Children>
**            </udmxml:Entity>
**            <udmxml:Entity xsi:type="udmxml:PartCType" displayName="Module Model.p" contentDefinitionType="UDMPartProto" id="3e7713e9ba35c74b8b5443a88ddf72f2:0">
**                <udmxml:Children>
**                    <udmxml:Child xsi:type="udmxml:ChildCType" refId="5822eaa76b5c874dbf5ecafb2f468c9f:0" timestamp="1779799055072499" childFlags="0" groupName="partprotoinst" contentDefinitionType="UDMPartProtoInst"/>
**                </udmxml:Children>
**            </udmxml:Entity>
**            <udmxml:Entity xsi:type="udmxml:PartCType" prototypeRefId="3e7713e9ba35c74b8b5443a88ddf72f2:0" displayName="Model" contentDefinitionType="UDMPartProtoOcc" id="e4df15106b0cdc4eb8558ac677cf47c4:0">
**                <udmxml:Attributes>
**                    <udmxml:Attribute xsi:type="udmxml:AttributeCType" valueutf8="3e7713e9ba35c74b8b5443a88ddf72f2" type="string" name="protoref" displayName="Prototype reference">3e7713e9ba35c74b8b5443a88ddf72f2</udmxml:Attribute>
**                    <udmxml:Attribute xsi:type="udmxml:AttributeCType" valueutf8="Components(3)" type="string" name="EntitySelectionExp">Components(3)</udmxml:Attribute>
**                    <udmxml:Attribute xsi:type="udmxml:AttributeCType" valueutf8="3" type="string" name="SelectionExp">3</udmxml:Attribute>
**                    <udmxml:Attribute xsi:type="udmxml:AttributeCType" valueutf8="59" type="string" name="UdmxmlString_HmOccurrenceColor">59</udmxml:Attribute>
**                    <udmxml:Attribute xsi:type="udmxml:AttributeCType" valueutf8="2" type="string" name="UdmxmlString_HmOccurrenceId">2</udmxml:Attribute>
**                    <udmxml:Attribute xsi:type="udmxml:AttributeCType" valueutf8="7389155" type="string" name="UdmxmlString_HmOccurrenceTrueColor">7389155</udmxml:Attribute>
**                    <udmxml:Attribute xsi:type="udmxml:AttributeCType" valueutf8="true" type="boolean" name="pseudo root">true</udmxml:Attribute>
**                </udmxml:Attributes>
**                <udmxml:Children>
**                    <udmxml:Child xsi:type="udmxml:ChildCType" refId="62664e8abd817c4099486c4394768a90:0" timestamp="1779799055072499" childFlags="0" groupName="partprotooccs" contentDefinitionType="UDMPartProtoOcc">
**                        <AdditionalIdList xsi:type="udmxml:AdditionalIdCType" xmlns="http://schemas.altair.com/AltairUDM" keyValue="螺栓" keyName="displayname" contentDefinitionType="UDMPartProtoOcc"/>
**                    </udmxml:Child>
**                </udmxml:Children>
**            </udmxml:Entity>
**        </udmxml:EntityCollection>
**        <udmxml:RelationCollection xsi:type="udmxml:RelationCollectionCType"/>
**        <udmxml:RootEntities xsi:type="udmxml:RootEntityCollectionCType">
**            <udmxml:ItemId>1f0f9d2577223a45b4221a7041bfb33c:0</udmxml:ItemId>
**        </udmxml:RootEntities>
**    </UDM>
**</Altair_XML_Export>
**<Altair_Model_Export/>
