*HEADING
Abaqus DataFile generated by C++ converter
*NODE
1,-5.0000000000000000e-01,-5.0000000000000000e-01,1.0000000000000000e+00
2,-5.0000000000000000e-01,5.0000000000000000e-01,1.0000000000000000e+00
3,-5.0000000000000000e-01,-5.0000000000000000e-01,0.0000000000000000e+00
4,-5.0000000000000000e-01,5.0000000000000000e-01,0.0000000000000000e+00
5,5.0000000000000000e-01,-5.0000000000000000e-01,1.0000000000000000e+00
6,5.0000000000000000e-01,5.0000000000000000e-01,1.0000000000000000e+00
7,5.0000000000000000e-01,-5.0000000000000000e-01,0.0000000000000000e+00
8,5.0000000000000000e-01,5.0000000000000000e-01,0.0000000000000000e+00
9,1.0000000000000000e+00,1.1000000000000001e+00,0.0000000000000000e+00
10,1.1000000000000001e+00,1.0000000000000000e+00,0.0000000000000000e+00
11,1.0000000000000000e+00,1.0000000000000000e+00,2.0000000000000000e+00
*ELEMENT, TYPE=C3D8R
1,5,6,8,7,1,2,4,3
