**
** ABAQUS Input Deck Generated by HyperMesh Version  : 2025.0.0.24
** Generated using HyperMesh-Abaqus Template Version : 2025.0.0.24-168648
** Generated on 06-02-2026 at 21:28:21
**
**   Template:  ABAQUS/STANDARD 3D
**
*NODE
         1,  6.0            ,  7.347880795E-16,  0.0            
         2,  4.8541019365217,  -3.526711554672,  0.0            
         3,  1.8541019502161,  -5.70633910298 ,  4.797849137E-15
         4,  -1.854101950216,  -5.70633910298 ,  0.0            
         5,  -4.854101936522,  -3.526711554672,  0.0            
         6,  -6.0           ,  0.0            ,  0.0            
         7,  -4.85410196625 ,  3.5267115137548,  0.0            
         8,  -1.85410196625 ,  5.7063390977709,  0.0            
         9,  1.8541019662497,  5.7063390977709,  0.0            
        10,  4.8541019662497,  3.5267115137548,  0.0            
        11,  3.8175315822275,  -0.116435416946,  0.0            
        12,  1.2964490136474,  -3.594729779357,  0.0            
        13,  -3.8174960721  ,  0.1163056578675,  0.0            
        14,  -1.296410262361,  3.5945809539255,  0.0            
        15,  2.7888353469853,  -2.020894575382,  0.0            
        16,  -2.579802906997,  -1.653311773133,  0.0            
        17,  -0.765918329728,  -2.968296761184,  0.0            
        18,  -2.788809063478,  2.020710239331 ,  0.0            
        19,  2.579856356813 ,  1.6531372331788,  0.0            
        20,  0.7659528788749,  2.9681289502257,  0.0            
        21,  0.870486584683 ,  -0.629995237964,  0.0            
        22,  -0.870421352934,  0.629720359282 ,  0.0            
        23,  9.9311487414179,  -5.891147427214,  40.0           
        24,  6.5753295080462,  -7.776165222288,  40.0           
        25,  3.2195102746744,  -9.661183017362,  40.0           
        26,  -0.136308958697,  -11.54620081244,  40.0           
        27,  -3.446691872503,  -9.582485003365,  40.0           
        28,  -6.757074786309,  -7.618769194294,  40.0           
        29,  -10.06745770012,  -5.655053385223,  40.0           
        30,  -10.02202138055,  -1.806319781077,  40.0           
        31,  -9.976585060984,  2.0424138230681,  40.0           
        32,  -9.931148741418,  5.8911474272137,  40.0           
        33,  -6.575329508046,  7.776165222288 ,  40.0           
        34,  -3.219510274674,  9.6611830173623,  40.0           
        35,  0.1363089586974,  11.546200812437,  40.0           
        36,  3.4466918725034,  9.5824850033654,  40.0           
        37,  6.7570747863094,  7.6187691942942,  40.0           
        38,  10.067457700115,  5.655053385223 ,  40.0           
        39,  10.02202138055 ,  1.8063197810774,  40.0           
        40,  9.9765850609837,  -2.042413823068,  40.0           
        41,  -6.000000000092,  1.452982570E-12,  40.0           
        42,  -4.853227944752,  -3.526072461168,  40.0           
        43,  -1.853810732905,  -5.705463674892,  40.0           
        44,  1.8538868082816,  -5.705700071101,  40.0           
        45,  4.8530966156097,  -3.525980616146,  40.0           
        46,  5.9999990656671,  1.441631875E-08,  40.0           
        47,  4.8541019662499,  3.5267115137546,  40.0           
        48,  1.8541019662495,  5.706339097771 ,  40.0           
        49,  -1.854101966249,  5.706339097771 ,  40.0           
        50,  -4.85410196625 ,  3.5267115137549,  40.0           
        51,  -6.000000000009,  1.453385601E-13,  4.0            
        52,  -6.000000000018,  2.906771201E-13,  8.0            
        53,  -6.000000000028,  4.360156802E-13,  12.0           
        54,  -6.000000000037,  5.813542402E-13,  16.0           
        55,  -6.000000000046,  7.266928003E-13,  20.0           
        56,  -6.000000000056,  8.720313604E-13,  24.0           
        57,  -6.000000000065,  1.017369920E-12,  28.0           
        58,  -6.000000000074,  1.162708480E-12,  32.0           
        59,  -6.000000000083,  1.308047041E-12,  36.0           
        60,  5.9999999065667,  1.441634135E-09,  4.0            
        61,  5.9999998131334,  2.883267535E-09,  8.0            
        62,  5.9999997197001,  4.324900936E-09,  12.0           
        63,  5.9999996262668,  5.766534336E-09,  16.0           
        64,  5.9999995328336,  7.208167736E-09,  20.0           
        65,  5.9999994394003,  8.649801137E-09,  24.0           
        66,  5.999999345967 ,  1.009143454E-08,  28.0           
        67,  5.9999992525337,  1.153306794E-08,  32.0           
        68,  5.9999991591004,  1.297470134E-08,  36.0           
        69,  -4.85410209903 ,  3.5267113830187,  3.9999999999999
        70,  -1.854102001121,  5.7063391118842,  3.999999999078 
        71,  1.8541019077906,  5.7063390820631,  4.0000000012183
        72,  4.8541017812842,  3.5267115648633,  4.0000000000037
        73,  -4.854102131868,  3.526711389842 ,  7.9999999999999
        74,  -1.854102035993,  5.7063391259973,  7.999999999078 
        75,  1.8541018493327,  5.7063390663549,  8.0000000012184
        76,  4.8541016637277,  3.5267115231913,  8.0000000000037
        77,  -4.854102166003,  3.5267113948797,  12.0           
        78,  -1.854102070866,  5.7063391401102,  11.999999999078
        79,  1.8541018037632,  5.706339046459 ,  12.000000001218
        80,  4.8541015388814,  3.5267114915528,  12.000000000004
        81,  -4.854102201435,  3.5267113981317,  16.0           
        82,  -1.854102105739,  5.706339154223 ,  15.999999999078
        83,  1.8541017496033,  5.7063390293543,  16.000000001218
        84,  4.8541014459246,  3.5267114160223,  16.000000000004
        85,  -4.854102206111,  3.5267114437158,  20.0           
        86,  -1.854102140613,  5.7063391683355,  19.999999999078
        87,  1.8541016954447,  5.7063390122492,  20.000000001218
        88,  4.8541013162935,  3.5267113909695,  20.000000000004
        89,  -4.854102237728,  3.52671145222  ,  24.0           
        90,  -1.854102175487,  5.7063391824479,  23.999999999078
        91,  1.8541016412871,  5.7063389951438,  24.000000001218
        92,  4.8541012381415,  3.5267112950619,  24.000000000004
        93,  -4.854102270642,  3.5267114589385,  28.0           
        94,  -1.854102210362,  5.7063391965602,  27.999999999078
        95,  1.8541015871308,  5.7063389780379,  28.000000001218
        96,  4.8541011251185,  3.5267112471499,  28.000000000004
        97,  -4.854102329065,  3.5267114305456,  32.0           
        98,  -1.854102245237,  5.7063392106722,  31.999999999078
        99,  1.8541014501881,  5.706338987831 ,  32.000000001218
       100,  4.8541010041783,  3.5267112101353,  32.00000002128 
       101,  -4.8541023676  ,  3.526711429527 ,  36.0           
       102,  -1.854102283859,  5.7063392235672,  35.999999999078
       103,  1.854101385686 ,  5.7063389740867,  36.000000001218
       104,  4.8541008513207,  3.5267112170509,  36.00000002128 
       105,  4.8540450717359,  -3.526670352869,  4.0000000049121
       106,  1.8540857706581,  -5.706290900285,  4.0000000006472
       107,  -1.854069643586,  -5.706241939588,  4.0000000026358
       108,  -4.85400375228 ,  -3.526639802075,  4.0000000122471
       109,  4.8539882869216,  -3.526629042942,  8.0000000060083
       110,  1.8540695890372,  -5.706242694141,  8.0000000012944
       111,  -1.854037335794,  -5.706144770016,  8.0000000052718
       112,  -4.853905648652,  -3.526567985895,  8.0000000163064
       113,  4.853931507318 ,  -3.526587727793,  12.000000007104
       114,  1.8540534028997,  -5.706194485346,  12.000000001942
       115,  -1.854005025038,  -5.706047594851,  12.000000007908
       116,  -4.853807550399,  -3.526496209708,  12.000000020365
       117,  4.853874731312 ,  -3.526546409648,  16.000000008201
       118,  1.8540372122449,  -5.7061462739  ,  16.000000002589
       119,  -1.853972711317,  -5.705950414094,  16.000000010544
       120,  -4.853709459016,  -3.526424471523,  16.000000024422
       121,  4.8538179637466,  -3.526505081828,  20.000000009297
       122,  1.8540210170726,  -5.706098059803,  20.000000003236
       123,  -1.853940394633,  -5.705853227744,  20.000000013181
       124,  -4.853611375404,  -3.526352770152,  20.000000028478
       125,  4.8537611997804,  -3.526463751015,  24.000000010393
       126,  1.8540048173823,  -5.706049843056,  24.000000003884
       127,  -1.853908074984,  -5.705756035803,  24.000000015817
       128,  -4.853513314635,  -3.526281084839,  24.000000032533
       129,  4.8537044410284,  -3.526422414982,  28.000000011489
       130,  1.8539886131736,  -5.706001623659,  28.000000004531
       131,  -1.85387575237 ,  -5.705658838271,  28.000000018454
       132,  -4.853415238035,  -3.526209468873,  28.000000036588
       133,  4.8536476874914,  -3.526381073732,  32.000000012585
       134,  1.8539724044459,  -5.705953401612,  32.000000005179
       135,  -1.853843426792,  -5.705561635149,  32.000000021091
       136,  -4.853317165401,  -3.526137894996,  32.000000040641
       137,  4.8535909391702,  -3.526339727263,  36.000000013681
       138,  1.853956191199 ,  -5.705905176916,  36.000000005826
       139,  -1.853811098248,  -5.705464426437,  36.000000023728
       140,  -4.853219103852,  -3.526066353584,  36.000000044693
       141,  3.8175260053271,  -0.116419874745,  4.0000000012645
       142,  2.7888191810739,  -2.020860700415,  4.0000000026839
       143,  3.817520450792 ,  -0.116404324838,  8.000000001696 
       144,  2.7888030491339,  -2.020826786606,  8.0000000035868
       145,  3.8175148963918,  -0.116388773557,  12.000000002128
       146,  2.7887869183326,  -2.020792871101,  12.00000000449 
       147,  3.8175093464583,  -0.116373228893,  16.000000002559
       148,  2.7887707904844,  -2.020758959011,  16.000000005393
       149,  3.8175037926523,  -0.116357674683,  20.00000000299 
       150,  2.7887546625778,  -2.020725038595,  20.000000006295
       151,  3.8174982457417,  -0.116342131604,  24.000000003422
       152,  2.7887385383317,  -2.020691124042,  24.000000007198
       153,  3.8174926945886,  -0.116326581948,  28.000000003853
       154,  2.7887224131846,  -2.020657205585,  28.000000008101
       155,  3.8174871371591,  -0.116311029779,  32.000000007492
       156,  2.7887062843592,  -2.020623284972,  32.000000010854
       157,  3.817481579997 ,  -0.116295471423,  36.000000007924
       158,  2.7886901573649,  -2.020589359493,  36.000000011757
       159,  3.8174076012416,  -0.116220995822,  40.0           
       160,  2.788483958669 ,  -2.020393947714,  40.0           
       161,  0.8704903585588,  -0.629963608582,  4.0000000023602
       162,  2.5798563031174,  1.653150220318 ,  4.0000000011339
       163,  0.8704941537171,  -0.629931960216,  8.0000000033451
       164,  2.5798562821931,  1.6531631922043,  8.0000000015377
       165,  0.8704979491646,  -0.629900312706,  12.00000000433 
       166,  2.5798562605098,  1.6531761663838,  12.000000001941
       167,  0.8705017483233,  -0.629868673498,  16.000000005315
       168,  2.5798562491756,  1.6531891241374,  16.000000002345
       169,  0.8705055447609,  -0.629837024761,  20.000000006299
       170,  2.5798562264017,  1.6532021020402,  20.000000002749
       171,  0.8705093453209,  -0.629805389016,  24.000000007284
       172,  2.5798562204011,  1.6532150524848,  24.000000003152
       173,  0.8705131428694,  -0.629773750844,  28.000000008268
       174,  2.5798562026952,  1.6532280184449,  28.000000003556
       175,  0.8705169302501,  -0.629742113072,  32.000000012387
       176,  2.5798561699114,  1.6532409895352,  32.000000011676
       177,  0.8705207205225,  -0.629710470272,  36.000000013372
       178,  2.579856136076 ,  1.6532539742045,  36.00000001208 
       179,  0.8704143245405,  -0.62961013466 ,  40.0           
       180,  2.57978887495  ,  1.6532717279675,  40.0           
       181,  -2.579766746854,  -1.653267442452,  4.0000000051039
       182,  -3.817481207768,  0.11632472062  ,  4.0000000021398
       183,  -2.579730601307,  -1.653223074654,  8.0000000070289
       184,  -3.817466336919,  0.1163438142007,  8.0000000029562
       185,  -2.579694457087,  -1.653178720162,  12.000000008954
       186,  -3.817451466513,  0.1163629020969,  12.000000003772
       187,  -2.579658314418,  -1.653134380052,  16.000000010878
       188,  -3.81743659676 ,  0.1163819834552,  16.000000004588
       189,  -2.579622172928,  -1.653090046512,  20.000000012802
       190,  -3.817421724294,  0.1164010675685,  20.000000005404
       191,  -2.579586039707,  -1.653045723458,  24.000000014725
       192,  -3.81740685782 ,  0.1164201423376,  24.00000000622 
       193,  -2.579549901823,  -1.653001422703,  28.000000016649
       194,  -3.817391989902,  0.1164392081832,  28.000000007036
       195,  -2.579513771618,  -1.65295713714 ,  32.000000019379
       196,  -3.817377130188,  0.1164582644739,  32.00000000841 
       197,  -2.579477641138,  -1.652912859505,  36.000000021301
       198,  -3.817362266797,  0.1164773205126,  36.000000009226
       199,  -2.579518205516,  -1.652844443759,  40.0           
       200,  -3.817381660287,  0.1165086258312,  40.0           
       201,  -2.788801048194,  2.0207228597937,  4.0000000012911
       202,  -2.78879299841 ,  2.0207355351505,  8.000000001803 
       203,  -2.788784948604,  2.0207482068927,  12.000000002315
       204,  -2.788776899106,  2.0207608733958,  16.000000002827
       205,  -2.788768840409,  2.0207735548956,  20.000000003338
       206,  -2.788760791169,  2.0207862187738,  24.00000000385 
       207,  -2.788752742379,  2.0207988784972,  28.000000004361
       208,  -2.788744710598,  2.0208115249969,  32.000000005798
       209,  -2.788736668036,  2.0208241787871,  36.000000006309
       210,  -2.788720248339,  2.0208138593412,  40.0           
       211,  1.2964442151403,  -3.594683705392,  4.000000002168 
       212,  1.2964394285189,  -3.594637609884,  8.0000000032547
       213,  1.2964346408102,  -3.594591513703,  12.000000004341
       214,  1.2964298528997,  -3.59454541933 ,  16.000000005428
       215,  1.2964250633393,  -3.594499320411,  20.000000006514
       216,  1.2964202731151,  -3.594453224135,  24.000000007601
       217,  1.2964154814843,  -3.594407127114,  28.000000008688
       218,  1.2964106857197,  -3.594361029492,  32.000000010742
       219,  1.2964058894242,  -3.594314929029,  36.000000011829
       220,  1.296291795817 ,  -3.594161638818,  40.0           
       221,  -0.870408853029,  0.6297453991607,  4.0000000025171
       222,  0.7659558545872,  2.9681395872126,  4.0000000012818
       223,  -1.296406630416,  3.5945885150998,  4.0000000005384
       224,  -0.870396338489,  0.6297704684868,  8.0000000034701
       225,  0.7659588474055,  2.9681502317344,  8.0000000016588
       226,  -1.296402981184,  3.5945960970224,  8.0000000008291
       227,  -0.870383823313,  0.62979553299  ,  12.000000004423
       228,  0.7659618437844,  2.968160874456 ,  12.000000002036
       229,  -1.296399330751,  3.5946036771477,  12.00000000112 
       230,  -0.870371307398,  0.6298205888835,  16.000000005376
       231,  0.7659648410862,  2.9681715105998,  16.000000002413
       232,  -1.296395680104,  3.5946112533232,  16.00000000141 
       233,  -0.870358790847,  0.6298456515608,  20.000000006328
       234,  0.7659678359686,  2.9681821559503,  20.00000000279 
       235,  -1.296392027193,  3.5946188376228,  20.000000001701
       236,  -0.870346276624,  0.6298707007774,  24.000000007281
       237,  0.7659708346175,  2.9681927882676,  24.000000003167
       238,  -1.296388376163,  3.5946264116436,  24.000000001991
       239,  -0.870333763069,  0.629895744948 ,  28.000000008233
       240,  0.7659738294969,  2.9682034239505,  28.000000003544
       241,  -1.296384726566,  3.5946339854444,  28.000000002282
       242,  -0.870321266374,  0.6299207837335,  32.000000011139
       243,  0.7659767912266,  2.9682140663729,  32.000000006802
       244,  -1.296381093784,  3.5946415570976,  32.000000003851
       245,  -0.870308760623,  0.6299458232447,  36.000000012091
       246,  0.7659797756772,  2.9682247071711,  36.000000007179
       247,  -1.29637745102 ,  3.5946491302555,  36.000000004142
       248,  -0.870369998893,  0.6299993150683,  40.0           
       249,  0.765940926891 ,  2.9682154630165,  40.0           
       250,  -1.296377384007,  3.5946345971683,  40.0           
       251,  -0.765900439934,  -2.968241205564,  4.0000000031372
       252,  -0.76588254614 ,  -2.968185627787,  8.0000000048301
       253,  -0.765864652204,  -2.968130052313,  12.000000006523
       254,  -0.765846757283,  -2.968074481534,  16.000000008216
       255,  -0.765828862724,  -2.968018907924,  20.000000009908
       256,  -0.765810969251,  -2.967963339212,  24.000000011601
       257,  -0.765793074657,  -2.967907774688,  28.000000013294
       258,  -0.765775184553,  -2.96785221313 ,  32.000000016069
       259,  -0.765757293163,  -2.967796650497,  36.000000017762
       260,  -0.765805496375,  -2.967714838779,  40.0           
       261,  5.9999990656671,  1.441631844E-08,  43.333333333333
       262,  4.8530966156097,  -3.525980616146,  43.333333333333
       263,  9.9765850609837,  -2.042413823068,  43.333333333333
       264,  10.02202138055 ,  1.8063197810774,  43.333333333333
       265,  5.9999990656671,  1.441631815E-08,  46.666666666667
       266,  4.8530966156097,  -3.525980616146,  46.666666666667
       267,  9.9765850609837,  -2.042413823068,  46.666666666667
       268,  10.02202138055 ,  1.8063197810774,  46.666666666667
       269,  5.9999990656671,  1.441631916E-08,  50.0           
       270,  4.8530966156096,  -3.525980616146,  50.0           
       271,  9.9765850609837,  -2.042413823068,  50.0           
       272,  10.02202138055 ,  1.8063197810774,  50.0           
       273,  1.8538868082816,  -5.705700071101,  43.333333333333
       274,  3.2195102746744,  -9.661183017362,  43.333333333333
       275,  6.5753295080462,  -7.776165222288,  43.333333333333
       276,  1.8538868082816,  -5.705700071101,  46.666666666667
       277,  3.2195102746744,  -9.661183017362,  46.666666666667
       278,  6.5753295080462,  -7.776165222288,  46.666666666667
       279,  1.8538868082816,  -5.705700071101,  50.0           
       280,  3.2195102746744,  -9.661183017362,  50.0           
       281,  6.5753295080462,  -7.776165222288,  50.0           
       282,  10.067457700115,  5.655053385223 ,  43.333333333333
       283,  6.7570747863094,  7.6187691942942,  43.333333333333
       284,  4.8541019662499,  3.5267115137546,  43.333333333333
       285,  10.067457700115,  5.655053385223 ,  46.666666666667
       286,  6.7570747863094,  7.6187691942942,  46.666666666667
       287,  4.8541019662498,  3.5267115137546,  46.666666666667
       288,  10.067457700115,  5.655053385223 ,  50.0           
       289,  6.7570747863094,  7.6187691942942,  50.0           
       290,  4.8541019662499,  3.5267115137546,  50.0           
       291,  -6.000000000092,  1.456955552E-12,  43.333333333333
       292,  -4.85410196625 ,  3.5267115137549,  43.333333333333
       293,  -9.976585060984,  2.0424138230682,  43.333333333333
       294,  -10.02202138055,  -1.806319781077,  43.333333333333
       295,  -6.000000000092,  1.455520586E-12,  46.666666666667
       296,  -4.85410196625 ,  3.5267115137549,  46.666666666667
       297,  -9.976585060984,  2.0424138230681,  46.666666666667
       298,  -10.02202138055,  -1.806319781077,  46.666666666667
       299,  -6.000000000092,  1.453377473E-12,  50.0           
       300,  -4.85410196625 ,  3.5267115137549,  50.0           
       301,  -9.976585060984,  2.0424138230681,  50.0           
       302,  -10.02202138055,  -1.806319781077,  50.0           
       303,  -1.853810732905,  -5.705463674892,  43.333333333333
       304,  -0.136308958697,  -11.54620081244,  43.333333333333
       305,  -1.853810732905,  -5.705463674892,  46.666666666667
       306,  -0.136308958697,  -11.54620081244,  46.666666666667
       307,  -1.853810732905,  -5.705463674892,  50.0           
       308,  -0.136308958697,  -11.54620081244,  50.0           
       309,  -3.219510274674,  9.6611830173623,  43.333333333333
       310,  -6.575329508046,  7.776165222288 ,  43.333333333333
       311,  -1.854101966249,  5.706339097771 ,  43.333333333333
       312,  -3.219510274674,  9.6611830173623,  46.666666666667
       313,  -6.575329508046,  7.776165222288 ,  46.666666666667
       314,  -1.854101966249,  5.706339097771 ,  46.666666666667
       315,  -3.219510274674,  9.6611830173623,  50.0           
       316,  -6.575329508046,  7.776165222288 ,  50.0           
       317,  -1.854101966249,  5.706339097771 ,  50.0           
       318,  9.9311487414179,  -5.891147427214,  43.333333333333
       319,  9.9311487414179,  -5.891147427214,  46.666666666667
       320,  9.9311487414179,  -5.891147427214,  50.0           
       321,  -4.853227944752,  -3.526072461168,  43.333333333333
       322,  -4.853227944752,  -3.526072461168,  46.666666666667
       323,  -4.853227944752,  -3.526072461168,  50.0           
       324,  -10.06745770012,  -5.655053385223,  43.333333333333
       325,  -6.757074786309,  -7.618769194294,  43.333333333333
       326,  -10.06745770012,  -5.655053385223,  46.666666666667
       327,  -6.757074786309,  -7.618769194294,  46.666666666667
       328,  -10.06745770012,  -5.655053385223,  50.0           
       329,  -6.757074786309,  -7.618769194294,  50.0           
       330,  3.4466918725034,  9.5824850033654,  43.333333333333
       331,  1.8541019662495,  5.706339097771 ,  43.333333333333
       332,  3.4466918725034,  9.5824850033654,  46.666666666667
       333,  1.8541019662495,  5.706339097771 ,  46.666666666667
       334,  3.4466918725034,  9.5824850033654,  50.0           
       335,  1.8541019662495,  5.706339097771 ,  50.0           
       336,  0.1363089586974,  11.546200812437,  43.333333333333
       337,  0.1363089586974,  11.546200812437,  46.666666666667
       338,  0.1363089586974,  11.546200812437,  50.0           
       339,  -3.446691872503,  -9.582485003365,  43.333333333333
       340,  -3.446691872503,  -9.582485003365,  46.666666666667
       341,  -3.446691872503,  -9.582485003365,  50.0           
       342,  -9.931148741418,  5.8911474272137,  43.333333333333
       343,  -9.931148741418,  5.8911474272137,  46.666666666667
       344,  -9.931148741418,  5.8911474272137,  50.0           
       345,  -0.765805496375,  -2.967714838779,  43.333333333333
       346,  -2.579518205516,  -1.652844443759,  43.333333333333
       347,  -0.765805496375,  -2.967714838779,  46.666666666667
       348,  -2.579518205516,  -1.652844443759,  46.666666666667
       349,  -0.765805496375,  -2.967714838779,  50.0           
       350,  -2.579518205516,  -1.652844443759,  50.0           
       351,  2.788483958669 ,  -2.020393947714,  43.333333333333
       352,  1.296291795817 ,  -3.594161638818,  43.333333333333
       353,  2.788483958669 ,  -2.020393947714,  46.666666666667
       354,  1.296291795817 ,  -3.594161638818,  46.666666666667
       355,  2.788483958669 ,  -2.020393947714,  50.0           
       356,  1.296291795817 ,  -3.594161638818,  50.0           
       357,  -2.788720248339,  2.0208138593412,  43.333333333333
       358,  -1.296377384007,  3.5946345971683,  43.333333333333
       359,  -2.788720248339,  2.0208138593412,  46.666666666667
       360,  -1.296377384007,  3.5946345971683,  46.666666666667
       361,  -2.788720248339,  2.0208138593412,  50.0           
       362,  -1.296377384007,  3.5946345971683,  50.0           
       363,  0.765940926891 ,  2.9682154630165,  43.333333333333
       364,  0.765940926891 ,  2.9682154630165,  46.666666666667
       365,  0.765940926891 ,  2.9682154630165,  50.0           
       366,  2.57978887495  ,  1.6532717279675,  43.333333333333
       367,  2.57978887495  ,  1.6532717279675,  46.666666666667
       368,  2.57978887495  ,  1.6532717279675,  50.0           
       369,  -3.817381660287,  0.1165086258312,  43.333333333333
       370,  -3.817381660287,  0.1165086258312,  46.666666666667
       371,  -3.817381660287,  0.1165086258312,  50.0           
       372,  3.8174076012416,  -0.116220995822,  43.333333333333
       373,  3.8174076012416,  -0.116220995822,  46.666666666667
       374,  3.8174076012416,  -0.116220995822,  50.0           
       375,  0.8704143245405,  -0.62961013466 ,  43.333333333333
       376,  0.8704143245405,  -0.62961013466 ,  46.666666666667
       377,  0.8704143245405,  -0.62961013466 ,  50.0           
       378,  -0.870369998893,  0.6299993150683,  43.333333333333
       379,  -0.870369998893,  0.6299993150683,  46.666666666667
       380,  -0.870369998893,  0.6299993150683,  50.0           
**HW_COMPONENT     ID=2     COLOR=59     NAME=网格
*ELEMENT,TYPE=C3D6
       340,       340,       306,       305,       341,       308,       307
       339,       339,       304,       303,       340,       306,       305
       338,        27,        26,        43,       339,       304,       303
       328,       265,       268,       287,       269,       272,       290
       327,       261,       264,       284,       265,       268,       287
       326,        46,        39,        47,       261,       264,       284
       325,       332,       337,       333,       334,       338,       335
       324,       330,       336,       331,       332,       337,       333
       323,        36,        35,        48,       330,       336,       331
       316,       295,       298,       322,       299,       302,       323
       315,       291,       294,       321,       295,       298,       322
       314,        41,        30,        42,       291,       294,       321
**HW_COMPONENT     ID=2     COLOR=59     NAME=网格
*ELEMENT,TYPE=C3D8R
       388,       364,       379,       376,       367,       365,       380,       377,       368
       387,       363,       378,       375,       366,       364,       379,       376,       367
       386,       249,       248,       179,       180,       363,       378,       375,       366
       385,       359,       370,       348,       379,       361,       371,       350,       380
       384,       357,       369,       346,       378,       359,       370,       348,       379
       383,       210,       200,       199,       248,       357,       369,       346,       378
       382,       360,       359,       379,       364,       362,       361,       380,       365
       381,       358,       357,       378,       363,       360,       359,       379,       364
       380,       250,       210,       248,       249,       358,       357,       378,       363
       379,       379,       348,       347,       376,       380,       350,       349,       377
       378,       378,       346,       345,       375,       379,       348,       347,       376
       377,       248,       199,       260,       179,       378,       346,       345,       375
       376,       367,       376,       353,       373,       368,       377,       355,       374
       375,       366,       375,       351,       372,       367,       376,       353,       373
       374,       180,       179,       160,       159,       366,       375,       351,       372
       373,       376,       347,       354,       353,       377,       349,       356,       355
       372,       375,       345,       352,       351,       376,       347,       354,       353
       371,       179,       260,       220,       160,       375,       345,       352,       351
       370,       265,       373,       353,       266,       269,       374,       355,       270
       369,       261,       372,       351,       262,       265,       373,       353,       266
       368,        46,       159,       160,        45,       261,       372,       351,       262
       367,       322,       348,       370,       295,       323,       350,       371,       299
       366,       321,       346,       369,       291,       322,       348,       370,       295
       365,        42,       199,       200,        41,       321,       346,       369,       291
       364,       287,       367,       373,       265,       290,       368,       374,       269
       363,       284,       366,       372,       261,       287,       367,       373,       265
       362,        47,       180,       159,        46,       284,       366,       372,       261
       361,       295,       370,       359,       296,       299,       371,       361,       300
       360,       291,       369,       357,       292,       295,       370,       359,       296
       359,        41,       200,       210,        50,       291,       369,       357,       292
       358,       276,       354,       347,       305,       279,       356,       349,       307
       357,       273,       352,       345,       303,       276,       354,       347,       305
       356,        44,       220,       260,        43,       273,       352,       345,       303
       355,       333,       364,       367,       287,       335,       365,       368,       290
       354,       331,       363,       366,       284,       333,       364,       367,       287
       353,        48,       249,       180,        47,       331,       363,       366,       284
       352,       314,       360,       364,       333,       317,       362,       365,       335
       351,       311,       358,       363,       331,       314,       360,       364,       333
       350,        49,       250,       249,        48,       311,       358,       363,       331
       349,       296,       359,       360,       314,       300,       361,       362,       317
       348,       292,       357,       358,       311,       296,       359,       360,       314
       347,        50,       210,       250,        49,       292,       357,       358,       311
       346,       266,       353,       354,       276,       270,       355,       356,       279
       345,       262,       351,       352,       273,       266,       353,       354,       276
       344,        45,       160,       220,        44,       262,       351,       352,       273
       343,       305,       347,       348,       322,       307,       349,       350,       323
       342,       303,       345,       346,       321,       305,       347,       348,       322
       341,        43,       260,       199,        42,       303,       345,       346,       321
       337,       297,       296,       313,       343,       301,       300,       316,       344
       336,       293,       292,       310,       342,       297,       296,       313,       343
       335,        31,        50,        33,        32,       293,       292,       310,       342
       334,       333,       337,       312,       314,       335,       338,       315,       317
       333,       331,       336,       309,       311,       333,       337,       312,       314
       332,        48,        35,        34,        49,       331,       336,       309,       311
       331,       327,       340,       305,       322,       329,       341,       307,       323
       330,       325,       339,       303,       321,       327,       340,       305,       322
       329,        28,        27,        43,        42,       325,       339,       303,       321
       322,       286,       332,       333,       287,       289,       334,       335,       290
       321,       283,       330,       331,       284,       286,       332,       333,       287
       320,        37,        36,        48,        47,       283,       330,       331,       284
       319,       298,       326,       327,       322,       302,       328,       329,       323
       318,       294,       324,       325,       321,       298,       326,       327,       322
       317,        30,        29,        28,        42,       294,       324,       325,       321
       313,       267,       266,       278,       319,       271,       270,       281,       320
       312,       263,       262,       275,       318,       267,       266,       278,       319
       311,        40,        45,        24,        23,       263,       262,       275,       318
       310,       312,       313,       296,       314,       315,       316,       300,       317
       309,       309,       310,       292,       311,       312,       313,       296,       314
       308,        34,        33,        50,        49,       309,       310,       292,       311
       307,       305,       306,       277,       276,       307,       308,       280,       279
       306,       303,       304,       274,       273,       305,       306,       277,       276
       305,        43,        26,        25,        44,       303,       304,       274,       273
       304,       295,       296,       297,       298,       299,       300,       301,       302
       303,       291,       292,       293,       294,       295,       296,       297,       298
       302,        41,        50,        31,        30,       291,       292,       293,       294
       301,       268,       285,       286,       287,       272,       288,       289,       290
       300,       264,       282,       283,       284,       268,       285,       286,       287
       299,        39,        38,        37,        47,       264,       282,       283,       284
       298,       266,       276,       277,       278,       270,       279,       280,       281
       297,       262,       273,       274,       275,       266,       276,       277,       278
       296,        45,        44,        25,        24,       262,       273,       274,       275
       295,       265,       266,       267,       268,       269,       270,       271,       272
       294,       261,       262,       263,       264,       265,       266,       267,       268
       293,        46,        45,        40,        39,       261,       262,       263,       264
       292,       259,       197,       140,       139,       260,       199,        42,        43
       291,       258,       195,       136,       135,       259,       197,       140,       139
       290,       257,       193,       132,       131,       258,       195,       136,       135
       289,       256,       191,       128,       127,       257,       193,       132,       131
       288,       255,       189,       124,       123,       256,       191,       128,       127
       287,       254,       187,       120,       119,       255,       189,       124,       123
       286,       253,       185,       116,       115,       254,       187,       120,       119
       285,       252,       183,       112,       111,       253,       185,       116,       115
       284,       251,       181,       108,       107,       252,       183,       112,       111
       283,        17,        16,         5,         4,       251,       181,       108,       107
       282,       247,       246,       103,       102,       250,       249,        48,        49
       281,       244,       243,        99,        98,       247,       246,       103,       102
       280,       241,       240,        95,        94,       244,       243,        99,        98
       279,       238,       237,        91,        90,       241,       240,        95,        94
       278,       235,       234,        87,        86,       238,       237,        91,        90
       277,       232,       231,        83,        82,       235,       234,        87,        86
       276,       229,       228,        79,        78,       232,       231,        83,        82
       275,       226,       225,        75,        74,       229,       228,        79,        78
       274,       223,       222,        71,        70,       226,       225,        75,        74
       273,        14,        20,         9,         8,       223,       222,        71,        70
       272,       219,       259,       139,       138,       220,       260,        43,        44
       271,       218,       258,       135,       134,       219,       259,       139,       138
       270,       217,       257,       131,       130,       218,       258,       135,       134
       269,       216,       256,       127,       126,       217,       257,       131,       130
       268,       215,       255,       123,       122,       216,       256,       127,       126
       267,       214,       254,       119,       118,       215,       255,       123,       122
       266,       213,       253,       115,       114,       214,       254,       119,       118
       265,       212,       252,       111,       110,       213,       253,       115,       114
       264,       211,       251,       107,       106,       212,       252,       111,       110
       263,        12,        17,         4,         3,       211,       251,       107,       106
       262,       259,       219,       158,       177,       260,       220,       160,       179
       261,       258,       218,       156,       175,       259,       219,       158,       177
       260,       257,       217,       154,       173,       258,       218,       156,       175
       259,       256,       216,       152,       171,       257,       217,       154,       173
       258,       255,       215,       150,       169,       256,       216,       152,       171
       257,       254,       214,       148,       167,       255,       215,       150,       169
       256,       253,       213,       146,       165,       254,       214,       148,       167
       255,       252,       212,       144,       163,       253,       213,       146,       165
       254,       251,       211,       142,       161,       252,       212,       144,       163
       253,        17,        12,        15,        21,       251,       211,       142,       161
       252,       197,       259,       177,       245,       199,       260,       179,       248
       251,       195,       258,       175,       242,       197,       259,       177,       245
       250,       193,       257,       173,       239,       195,       258,       175,       242
       249,       191,       256,       171,       236,       193,       257,       173,       239
       248,       189,       255,       169,       233,       191,       256,       171,       236
       247,       187,       254,       167,       230,       189,       255,       169,       233
       246,       185,       253,       165,       227,       187,       254,       167,       230
       245,       183,       252,       163,       224,       185,       253,       165,       227
       244,       181,       251,       161,       221,       183,       252,       163,       224
       243,        16,        17,        21,        22,       181,       251,       161,       221
       242,       209,       247,       102,       101,       210,       250,        49,        50
       241,       208,       244,        98,        97,       209,       247,       102,       101
       240,       207,       241,        94,        93,       208,       244,        98,        97
       239,       206,       238,        90,        89,       207,       241,        94,        93
       238,       205,       235,        86,        85,       206,       238,        90,        89
       237,       204,       232,        82,        81,       205,       235,        86,        85
       236,       203,       229,        78,        77,       204,       232,        82,        81
       235,       202,       226,        74,        73,       203,       229,        78,        77
       234,       201,       223,        70,        69,       202,       226,        74,        73
       233,        18,        14,         8,         7,       201,       223,        70,        69
       232,       245,       177,       178,       246,       248,       179,       180,       249
       231,       242,       175,       176,       243,       245,       177,       178,       246
       230,       239,       173,       174,       240,       242,       175,       176,       243
       229,       236,       171,       172,       237,       239,       173,       174,       240
       228,       233,       169,       170,       234,       236,       171,       172,       237
       227,       230,       167,       168,       231,       233,       169,       170,       234
       226,       227,       165,       166,       228,       230,       167,       168,       231
       225,       224,       163,       164,       225,       227,       165,       166,       228
       224,       221,       161,       162,       222,       224,       163,       164,       225
       223,        22,        21,        19,        20,       221,       161,       162,       222
       222,       178,       157,        68,       104,       180,       159,        46,        47
       221,       176,       155,        67,       100,       178,       157,        68,       104
       220,       174,       153,        66,        96,       176,       155,        67,       100
       219,       172,       151,        65,        92,       174,       153,        66,        96
       218,       170,       149,        64,        88,       172,       151,        65,        92
       217,       168,       147,        63,        84,       170,       149,        64,        88
       216,       166,       145,        62,        80,       168,       147,        63,        84
       215,       164,       143,        61,        76,       166,       145,        62,        80
       214,       162,       141,        60,        72,       164,       143,        61,        76
       213,        19,        11,         1,        10,       162,       141,        60,        72
       212,       198,       197,       245,       209,       200,       199,       248,       210
       211,       196,       195,       242,       208,       198,       197,       245,       209
       210,       194,       193,       239,       207,       196,       195,       242,       208
       209,       192,       191,       236,       206,       194,       193,       239,       207
       208,       190,       189,       233,       205,       192,       191,       236,       206
       207,       188,       187,       230,       204,       190,       189,       233,       205
       206,       186,       185,       227,       203,       188,       187,       230,       204
       205,       184,       183,       224,       202,       186,       185,       227,       203
       204,       182,       181,       221,       201,       184,       183,       224,       202
       203,        13,        16,        22,        18,       182,       181,       221,       201
       202,       246,       178,       104,       103,       249,       180,        47,        48
       201,       243,       176,       100,        99,       246,       178,       104,       103
       200,       240,       174,        96,        95,       243,       176,       100,        99
       199,       237,       172,        92,        91,       240,       174,        96,        95
       198,       234,       170,        88,        87,       237,       172,        92,        91
       197,       231,       168,        84,        83,       234,       170,        88,        87
       196,       228,       166,        80,        79,       231,       168,        84,        83
       195,       225,       164,        76,        75,       228,       166,        80,        79
       194,       222,       162,        72,        71,       225,       164,        76,        75
       193,        20,        19,        10,         9,       222,       162,        72,        71
       192,       209,       245,       246,       247,       210,       248,       249,       250
       191,       208,       242,       243,       244,       209,       245,       246,       247
       190,       207,       239,       240,       241,       208,       242,       243,       244
       189,       206,       236,       237,       238,       207,       239,       240,       241
       188,       205,       233,       234,       235,       206,       236,       237,       238
       187,       204,       230,       231,       232,       205,       233,       234,       235
       186,       203,       227,       228,       229,       204,       230,       231,       232
       185,       202,       224,       225,       226,       203,       227,       228,       229
       184,       201,       221,       222,       223,       202,       224,       225,       226
       183,        18,        22,        20,        14,       201,       221,       222,       223
       182,       158,       219,       138,       137,       160,       220,        44,        45
       181,       156,       218,       134,       133,       158,       219,       138,       137
       180,       154,       217,       130,       129,       156,       218,       134,       133
       179,       152,       216,       126,       125,       154,       217,       130,       129
       178,       150,       215,       122,       121,       152,       216,       126,       125
       177,       148,       214,       118,       117,       150,       215,       122,       121
       176,       146,       213,       114,       113,       148,       214,       118,       117
       175,       144,       212,       110,       109,       146,       213,       114,       113
       174,       142,       211,       106,       105,       144,       212,       110,       109
       173,        15,        12,         3,         2,       142,       211,       106,       105
       172,       198,       209,       101,        59,       200,       210,        50,        41
       171,       196,       208,        97,        58,       198,       209,       101,        59
       170,       194,       207,        93,        57,       196,       208,        97,        58
       169,       192,       206,        89,        56,       194,       207,        93,        57
       168,       190,       205,        85,        55,       192,       206,        89,        56
       167,       188,       204,        81,        54,       190,       205,        85,        55
       166,       186,       203,        77,        53,       188,       204,        81,        54
       165,       184,       202,        73,        52,       186,       203,        77,        53
       164,       182,       201,        69,        51,       184,       202,        73,        52
       163,        13,        18,         7,         6,       182,       201,        69,        51
       162,       197,       198,        59,       140,       199,       200,        41,        42
       161,       195,       196,        58,       136,       197,       198,        59,       140
       160,       193,       194,        57,       132,       195,       196,        58,       136
       159,       191,       192,        56,       128,       193,       194,        57,       132
       158,       189,       190,        55,       124,       191,       192,        56,       128
       157,       187,       188,        54,       120,       189,       190,        55,       124
       156,       185,       186,        53,       116,       187,       188,        54,       120
       155,       183,       184,        52,       112,       185,       186,        53,       116
       154,       181,       182,        51,       108,       183,       184,        52,       112
       153,        16,        13,         6,         5,       181,       182,        51,       108
       152,       177,       158,       157,       178,       179,       160,       159,       180
       151,       175,       156,       155,       176,       177,       158,       157,       178
       150,       173,       154,       153,       174,       175,       156,       155,       176
       149,       171,       152,       151,       172,       173,       154,       153,       174
       148,       169,       150,       149,       170,       171,       152,       151,       172
       147,       167,       148,       147,       168,       169,       150,       149,       170
       146,       165,       146,       145,       166,       167,       148,       147,       168
       145,       163,       144,       143,       164,       165,       146,       145,       166
       144,       161,       142,       141,       162,       163,       144,       143,       164
       143,        21,        15,        11,        19,       161,       142,       141,       162
       142,       157,       158,       137,        68,       159,       160,        45,        46
       141,       155,       156,       133,        67,       157,       158,       137,        68
       140,       153,       154,       129,        66,       155,       156,       133,        67
       139,       151,       152,       125,        65,       153,       154,       129,        66
       138,       149,       150,       121,        64,       151,       152,       125,        65
       137,       147,       148,       117,        63,       149,       150,       121,        64
       136,       145,       146,       113,        62,       147,       148,       117,        63
       135,       143,       144,       109,        61,       145,       146,       113,        62
       134,       141,       142,       105,        60,       143,       144,       109,        61
       133,        11,        15,         2,         1,       141,       142,       105,        60
