**
** ABAQUS Input Deck Generated by HyperMesh Version  : 2025.0.0.24
** Generated using HyperMesh-Abaqus Template Version : 2025.0.0.24-168648
** Generated on 06-02-2026 at 21:26:23
**
**   Template:  ABAQUS/STANDARD 3D
**
*NODE
         1,  6.0            ,  7.347880795E-16,  0.0            
         2,  4.2426406871193,  4.2426406871193,  0.0            
         3,  -3.66736624E-16,  6.0            ,  0.0            
         4,  -4.242640687119,  4.2426406871193,  0.0            
         5,  -6.0           ,  0.0            ,  0.0            
         6,  -6.0           ,  8.325303070E-17,  5.0            
         7,  -6.0           ,  8.325303070E-17,  10.0           
         8,  -6.0           ,  8.325303070E-17,  15.0           
         9,  -6.0           ,  8.325303070E-17,  20.0           
        10,  -6.0           ,  8.325303070E-17,  25.0           
        11,  -6.0           ,  8.325303070E-17,  30.0           
        12,  -6.0           ,  8.325303070E-17,  35.0           
        13,  -6.000000000092,  1.452982570E-12,  40.0           
        14,  -4.242640687119,  4.2426406871193,  40.0           
        15,  -7.22973551E-14,  6.0            ,  40.0           
        16,  4.2426406871193,  4.2426406871193,  40.0           
        17,  5.9999990656671,  1.441631875E-08,  40.0           
        18,  6.0            ,  1.671936997E-14,  35.0           
        19,  6.0            ,  1.671936997E-14,  30.0           
        20,  6.0            ,  1.671936997E-14,  25.0           
        21,  6.0            ,  1.671936997E-14,  20.0           
        22,  6.0            ,  1.671936997E-14,  15.0           
        23,  6.0            ,  1.671936997E-14,  10.0           
        24,  6.0            ,  1.671936997E-14,  5.0            
        25,  -4.919263852006,  3.4352355311306,  3.5207480350074
        26,  5.0613593069198,  3.2222107265442,  36.454960448606
        27,  1.6481907825222,  5.7691825369292,  35.754081039464
        28,  -3.108491619855,  5.1319859556794,  35.838407671986
        29,  -4.649509813929,  3.7923684539052,  32.055040001648
        30,  -1.04888156441 ,  5.9076092849682,  4.3353724648667
        31,  3.4394491954292,  4.916318666651 ,  3.9544005455306
        32,  2.6576597668338,  5.3792977760813,  8.4873150389429
        33,  -3.779347346226,  4.6601001745218,  7.834224333482 
        34,  4.3065409761774,  4.1777631359981,  31.898131979077
        35,  -3.648203197903,  4.7634665346583,  27.58108115412 
        36,  -3.031226853482,  5.1779980458406,  22.876795170711
        37,  3.0200487583089,  5.1845255807486,  13.229345304006
        38,  3.909655392587 ,  4.5513288950828,  17.566645800019
        39,  -3.068488939877,  5.1560038426918,  12.348829202173
        40,  2.7097563469721,  5.3532439268209,  26.903978662951
        41,  -2.407298054207,  5.4958999334243,  17.579062485723
        42,  3.0086300825417,  5.1911602774741,  21.964891085963
        43,  -0.306497608377,  5.9921664876786,  31.353155261814
        44,  -4.242640657317,  -4.242640716922,  0.0            
        45,  1.104811780E-15,  -6.0           ,  0.0            
        46,  4.242640657317 ,  -4.242640716922,  0.0            
        47,  4.2418133259575,  -4.241805677912,  40.0           
        48,  -1.95780255E-06,  -5.998709152153,  40.0           
        49,  -4.24211805316 ,  -4.242110932139,  40.0           
        50,  -4.821389590178,  -3.571302622255,  3.8544740730497
        51,  5.0758816993436,  -3.199285072367,  36.455945238275
        52,  1.7284203790868,  -5.745656010688,  35.755043936288
        53,  -1.019908566567,  -5.912680146587,  4.388561873838 
        54,  -3.011657813114,  -5.189404321953,  8.6343911452298
        55,  -3.030468147652,  -5.178442121533,  13.453468347039
        56,  4.3350462708652,  -4.148177169488,  31.889595294442
        57,  2.7759470559437,  -5.319221554194,  26.883735367498
        58,  -3.045765717368,  -5.169459468349,  35.840140669884
        59,  -4.625962467984,  -3.821056299611,  32.102770524961
        60,  3.4586603130593,  -4.902822537974,  3.5934278955055
        61,  3.4428835385772,  -4.91391421779 ,  7.6154214451552
        62,  3.0396227840829,  -5.17307387638 ,  11.966403999017
        63,  -3.644585683788,  -4.766234907506,  27.71346583573 
        64,  3.014748352358 ,  -5.187609504575,  16.783946292098
        65,  -3.04986681062 ,  -5.167040975014,  23.230620194665
        66,  -2.993686644455,  -5.19979232997 ,  18.379601681364
        67,  3.0087686123773,  -5.191079987553,  21.809912147127
        68,  -0.22743560025 ,  -5.995687871107,  31.350141864204
        69,  3.20795854984  ,  1.0367965720723,  0.0            
        70,  1.0367965721601,  -3.207958553504,  0.0            
        71,  -3.207958548549,  -1.036796583248,  0.0            
        72,  -1.036796575327,  3.2079585483541,  0.0            
        73,  2.9987200806162,  -1.53383773647 ,  0.0            
        74,  -1.533837723322,  -2.998720086646,  0.0            
        75,  -2.998720082226,  1.5338377254658,  0.0            
        76,  1.5338377290036,  2.9987200806708,  0.0            
        77,  3.286621585E-10,  -2.17377200E-09,  0.0            
        78,  9.9311487414179,  -5.891147427214,  50.0           
        79,  4.8974198913603,  -8.718674119825,  50.0           
        80,  -0.136308958697,  -11.54620081244,  50.0           
        81,  -0.136308958697,  -11.54620081244,  45.0           
        82,  -0.136308958697,  -11.54620081244,  40.0           
        83,  4.8974198913603,  -8.718674119825,  40.0           
        84,  9.9311487414179,  -5.891147427214,  40.0           
        85,  9.9311487414179,  -5.891147427214,  45.0           
        86,  3.2022787878306,  -9.670862221478,  46.684438831884
        87,  2.7608501568204,  -9.918819804066,  42.878469937958
        88,  6.59256099489  ,  -7.766486018172,  43.315561168116
        89,  7.0339896259001,  -7.518528435584,  47.121530062042
        90,  10.067457700115,  5.655053385223 ,  50.0           
        91,  9.9993032207666,  -0.118047020995,  50.0           
        92,  9.9993032207666,  -0.118047020995,  40.0           
        93,  10.067457700115,  5.655053385223 ,  40.0           
        94,  10.067457700115,  5.655053385223 ,  45.0           
        95,  10.028231437241,  2.3323494881938,  47.121530062042
        96,  9.9763517542147,  -2.062176330478,  46.684438831884
        97,  9.9703750042919,  -2.568443530184,  42.878469937958
        98,  10.022254687319,  1.8260822884871,  43.315561168116
        99,  0.1363089586974,  11.546200812437,  50.0           
       100,  5.1018833294064,  8.6006270988298,  50.0           
       101,  5.1018833294064,  8.6006270988298,  40.0           
       102,  0.1363089586974,  11.546200812437,  40.0           
       103,  0.1363089586974,  11.546200812437,  45.0           
       104,  7.2095248474715,  7.3503762738819,  47.121530062042
       105,  6.7740729663842,  7.6086858910004,  43.315561168116
       106,  2.9942418113413,  9.8508779237777,  42.878469937958
       107,  3.4296936924286,  9.5925683066591,  46.684438831884
       108,  -9.931148741418,  5.8911474272137,  50.0           
       109,  -4.89741989136 ,  8.7186741198252,  50.0           
       110,  -4.89741989136 ,  8.7186741198252,  40.0           
       111,  -9.931148741418,  5.8911474272137,  40.0           
       112,  -9.931148741418,  5.8911474272137,  45.0           
       113,  -3.20227878783 ,  9.6708622214783,  46.684438831884
       114,  -2.76085015682 ,  9.9188198040664,  42.878469937958
       115,  -6.59256099489 ,  7.766486018172 ,  43.315561168116
       116,  -7.0339896259  ,  7.5185284355839,  47.121530062042
       117,  -10.06745770012,  -5.655053385223,  50.0           
       118,  -9.999303220767,  0.1180470209954,  50.0           
       119,  -9.999303220767,  0.1180470209954,  40.0           
       120,  -10.06745770012,  -5.655053385223,  40.0           
       121,  -10.06745770012,  -5.655053385223,  45.0           
       122,  -9.970375004292,  2.5684435301845,  42.878469937958
       123,  -10.02225468732,  -1.826082288487,  43.315561168116
       124,  -9.976351754215,  2.0621763304779,  46.684438831884
       125,  -10.02823143724,  -2.332349488194,  47.121530062042
       126,  -5.101883329406,  -8.60062709883 ,  50.0           
       127,  -5.101883329406,  -8.60062709883 ,  40.0           
       128,  -7.209524847471,  -7.350376273882,  47.121530062042
       129,  -2.994241811341,  -9.850877923778,  42.878469937958
       130,  -3.429693692429,  -9.592568306659,  46.684438831884
       131,  -6.774072966384,  -7.608685891   ,  43.315561168116
       132,  -5.033728850058,  -2.827526692611,  50.0           
       133,  -0.068154479349,  -5.773100406218,  50.0           
       134,  4.965574370709 ,  -2.945573713607,  50.0           
       135,  5.0337288500577,  2.8275266926115,  50.0           
       136,  0.0681544793487,  5.7731004062183,  50.0           
       137,  -4.965574370709,  2.9455737136068,  50.0           
       138,  6.970680033E-15,  4.131816667E-15,  50.0           
       139,  -3.207938366628,  -1.036274688598,  40.0           
       140,  -1.036797097515,  3.2082034487777,  40.0           
       141,  3.2079926997919,  1.0371311949381,  40.0           
       142,  1.0365324540792,  -3.206921632608,  40.0           
       143,  -2.998776566874,  1.5341335612721,  40.0           
       144,  1.5338780557623,  2.9989521909255,  40.0           
       145,  2.9984894126204,  -1.533143438607,  40.0           
       146,  -1.533819284262,  -2.997812956314,  40.0           
       147,  -6.49764689E-05,  6.798419880E-04,  40.0           
       148,  -2.150699089474,  -4.083926422958,  46.656535047134
       149,  4.0789022114062,  -0.205912307658,  42.152500917115
       150,  1.4029913044563,  -2.280035618765,  46.457765852345
       151,  5.9193289283514,  -2.857871704761,  44.569046197874
       152,  2.758945064219 ,  -2.993956916376,  43.197911497315
       153,  1.6410803387456,  1.4620763449965,  42.717677624604
       154,  5.9855255188206,  2.8997032029747,  44.350109194893
       155,  -5.89738760658 ,  1.1050303625256,  44.298141745939
       156,  2.8899317486771,  6.3250574678325,  43.36039123878 
       157,  -2.383954023417,  -6.513776843016,  43.273651288751
       158,  -4.62318809355 ,  -2.505691652491,  43.692389188991
       159,  -3.333101073589,  0.0393490069984,  46.363074302696
       160,  -3.606475799352,  4.752528923353 ,  45.707176687347
       161,  -0.16578393555 ,  -2.068018248978,  43.034144262393
       162,  -2.759404783836,  2.994992565723 ,  43.198053347728
       163,  -0.06133755493 ,  4.8062034993927,  43.356233251524
       164,  -2.068926636657,  0.1661795715542,  43.034264172909
       165,  3.720030139609 ,  -0.09911754518 ,  46.348582627226
       166,  2.9601500443012,  5.9163926191232,  46.437855050489
       167,  1.3743850140567,  2.621913990005 ,  46.130885157962
       168,  2.182959942044 ,  -6.042586154346,  44.649170102551
       169,  -1.345212880286,  1.581005617346 ,  36.363250741643
       170,  -0.487143430892,  -2.716787036437,  36.312692585387
       171,  -0.659770206009,  -0.03674140135 ,  20.082161220898
       172,  1.5805987597241,  1.3451722168564,  3.7563185289885
       173,  0.9251813028507,  0.4044284223433,  7.1740622167054
       174,  0.409774465726 ,  -0.325653210446,  15.585852398975
       175,  0.4658053284336,  1.8468111843866,  33.455503545373
       176,  0.0603103415615,  0.001205183547 ,  11.15765548518 
       177,  2.0688057119811,  -0.16511080056 ,  36.670826221577
       178,  -2.068892876816,  0.1656803800148,  3.6487402707505
       179,  1.66100466048  ,  -1.952813980002,  3.6045428536733
       180,  0.589012847858 ,  0.0081577760583,  24.895329152379
       181,  -0.657718499126,  0.2374926847957,  29.804185787053
       182,  -1.500044147737,  -0.833324624784,  33.22910090552 
**HW_COMPONENT     ID=2     COLOR=59     NAME=四面体网格
*ELEMENT,TYPE=C3D4
       297,        91,        96,        78,       134
       298,       107,       103,       113,        99
       299,        15,       101,       106,       156
       300,        15,       144,        16,       156
       301,       119,       123,       120,        13
       302,       123,        49,       120,        13
       303,       114,        15,       106,       156
       304,       118,       125,       124,       155
       305,       144,        15,       163,       156
       306,       111,       115,        14,       110
       307,        15,       114,       163,       156
       308,       101,        16,       105,       156
       309,        13,       111,       122,        14
       310,       106,       101,       105,       156
       311,       108,       116,       137,       124
       312,       106,       105,       107,       156
       313,       107,       105,       166,       156
       314,       154,        16,       153,       156
       315,       167,       163,       166,       156
       316,       167,       166,       154,       156
       317,       111,       115,       122,        14
       318,       106,       102,       114,       103
       319,        92,        97,        98,        17
       320,       105,        16,       154,       156
       321,       166,       105,       154,       156
       322,        16,       144,       153,       156
       323,       114,       106,       103,       156
       324,       106,       107,       103,       156
       325,        17,        93,       154,        98
       326,       101,       102,        15,       106
       327,       102,       114,        15,       106
       328,       162,       140,       153,       164
       329,       163,       113,       166,       156
       330,       115,       122,       112,       111
       331,       120,       131,       123,       121
       332,       151,        47,        17,        97
       333,       124,       108,       116,       112
       334,        88,        47,        97,        84
       335,       117,       132,       128,       125
       336,       130,        86,       133,        80
       337,        47,        17,        97,        84
       338,       108,       109,       137,       116
       339,        47,        84,        88,        83
       340,       104,        90,       100,       135
       341,       130,        80,       133,       126
       342,       129,        82,       127,        48
       343,       119,       111,       122,        13
       344,       118,       108,       137,       124
       345,       115,       114,        14,       110
       346,       130,        81,        86,        80
       347,        95,       104,        90,        94
       348,        87,        82,       129,        48
       349,       133,        80,        86,        79
       350,       126,       117,       132,       128
       351,        90,       135,       104,        95
       352,       107,       100,        99,       136
       353,       113,       107,        99,       136
       354,       113,        99,       109,       136
       355,       120,       127,        49,       131
       356,       113,       114,       103,       156
       357,       101,        15,        16,       156
       358,       114,       113,       163,       156
       359,        79,       134,        78,        89
       360,       163,       167,       153,       156
       361,       146,        49,        48,       157
       362,        17,        92,        97,        84
       363,        96,        85,        78,        89
       364,       167,       154,       153,       156
       365,       146,        48,       161,       157
       366,       129,        87,        48,       157
       367,       144,       163,       153,       156
       368,       128,       117,       125,       121
       369,       123,       120,        49,       131
       370,        48,        87,       168,       157
       371,        48,       168,       161,       157
       372,       168,       148,       161,       157
       373,        16,        93,       101,       105
       374,       129,       130,        81,       157
       375,        87,        81,       168,       157
       376,        81,       130,       168,       157
       377,        17,        47,       151,       149
       378,        13,       122,       123,       155
       379,        17,        98,       151,        97
       380,        49,       146,       158,       157
       381,        82,       129,        81,        87
       382,       125,       117,       132,       118
       383,       158,       146,       161,       157
       384,        95,        90,       135,        91
       385,       127,       129,        48,       157
       386,        49,       127,        48,       157
       387,       158,       131,       121,       123
       388,        92,        98,        93,        17
       389,       130,       131,       128,       157
       390,       130,       128,       148,       157
       391,       128,       131,       158,       157
       392,       128,       158,       148,       157
       393,       148,       158,       161,       157
       394,       129,       127,       131,       157
       395,       127,        49,       131,       157
       396,        85,        88,        97,        84
       397,        15,       110,       114,       102
       398,        87,        82,        48,        83
       399,       130,       129,       131,       157
       400,       131,        49,       158,       157
       401,        14,       110,       114,        15
       402,       137,       118,       124,       155
       403,       125,       123,       124,       155
       404,       124,       123,       122,       155
       405,        89,        96,       134,        78
       406,        13,       123,       122,       119
       407,        89,       134,        96,       151
       408,       115,       122,        14,       155
       409,       112,       124,       122,       155
       410,       122,       115,       112,       155
       411,       122,        13,        14,       155
       412,        13,       143,        14,       155
       413,        49,       146,       139,       158
       414,        49,       123,       131,       158
       415,        49,       139,        13,       158
       416,        93,        16,       154,       105
       417,       132,       128,       125,       158
       418,        93,        94,       154,        98
       419,       123,        13,       155,       158
       420,       123,        49,        13,       158
       421,       121,       131,       158,       128
       422,       125,       123,       155,       158
       423,       154,        94,        93,       105
       424,       155,       125,       158,       159
       425,       125,       132,       158,       159
       426,       132,       137,       138,       159
       427,       118,       125,       155,       159
       428,       132,       125,       118,       159
       429,       137,       118,       155,       159
       430,       137,       132,       118,       159
       431,       114,       115,        14,       162
       432,       115,       114,       113,       160
       433,       116,       115,       113,       160
       434,       155,       137,       159,       160
       435,       115,       112,       155,       160
       436,       115,       116,       112,       160
       437,       137,       138,       159,       160
       438,       137,       136,       138,       160
       439,       109,       113,       136,       160
       440,       137,       109,       136,       160
       441,       124,       137,       155,       160
       442,       116,       137,       124,       160
       443,       109,       116,       113,       160
       444,       109,       137,       116,       160
       445,       112,       124,       155,       160
       446,       116,       124,       112,       160
       447,       158,       159,       148,       161
       448,       158,       146,       164,       161
       449,       150,       168,       148,       161
       450,       168,       150,       152,       161
       451,       155,       143,       139,        13
       452,       159,       150,       148,       161
       453,       150,       165,       152,       161
       454,       155,       158,       139,       164
       455,       146,        48,       142,       161
       456,       146,       147,       164,       161
       457,       147,       146,       142,       161
       458,       167,       165,       150,       161
       459,       145,       142,       152,       161
       460,       145,       147,       142,       161
       461,       159,       167,       150,       161
       462,       159,       164,       167,       161
       463,       159,       155,       160,       162
       464,       143,       140,        14,       162
       465,       143,        14,       155,       162
       466,        14,       140,        15,       162
       467,       155,       115,       160,       162
       468,        14,       115,       155,       162
       469,       115,       114,       160,       162
       470,       114,        14,        15,       162
       471,       140,        15,       162,       163
       472,        15,       140,       144,       163
       473,       114,       160,       162,       163
       474,        15,       114,       162,       163
       475,       114,       113,       160,       163
       476,       159,       155,       162,       164
       477,       158,       155,       159,       164
       478,       155,       143,       162,       164
       479,       152,        47,        48,       142
       480,       139,       147,       143,       164
       481,       146,       139,       158,       164
       482,       139,       146,       147,       164
       483,       141,       153,       154,        16
       484,       154,       153,       141,       149
       485,       143,       140,       162,       164
       486,       143,       147,       140,       164
       487,       141,        17,       154,       149
       488,       154,        17,       141,        16
       489,       135,       138,       167,       165
       490,       138,       135,       134,       165
       491,        91,        96,       134,       165
       492,       135,        91,       134,       165
       493,       135,        95,        91,       165
       494,        95,        96,        91,       165
       495,       105,       104,       107,       166
       496,       107,       104,       100,       166
       497,       100,       104,       135,       166
       498,       107,       100,       136,       166
       499,       136,       135,       167,       166
       500,       136,       100,       135,       166
       501,       163,       160,       167,       166
       502,       160,       136,       167,       166
       503,       113,       107,       136,       166
       504,       113,       160,       163,       166
       505,       113,       136,       160,       166
       506,        17,       154,        93,        16
       507,       136,       135,       138,       167
       508,       136,       138,       160,       167
       509,        48,        47,       152,       168
       510,       162,       159,       164,       167
       511,       138,       159,       160,       167
       512,       160,       162,       163,       167
       513,       160,       159,       162,       167
       514,        86,        88,        87,       168
       515,        88,        47,        83,       168
       516,        87,        88,        83,       168
       517,        81,        86,        87,       168
       518,        88,        86,        89,       168
       519,       139,       158,       155,        13
       520,        48,        87,        83,       168
       521,        47,        48,        83,       168
       522,       129,        81,        87,       157
       523,        81,       130,        86,       168
       524,        86,        79,        89,       168
       525,        86,       130,       133,       168
       526,       151,        98,       154,        96
       527,        79,       134,        89,       168
       528,       165,        96,       151,       154
       529,        86,       133,        79,       168
       530,       132,       158,       159,       148
       531,       133,       138,       150,       148
       532,       133,       132,       138,       148
       533,       133,       150,       168,       148
       534,       159,       158,       164,       161
       535,       138,       132,       159,       148
       536,       132,       128,       158,       148
       537,       133,       126,       132,       148
       538,       133,       130,       126,       148
       539,       138,       159,       150,       148
       540,       138,       159,       167,       150
       541,       126,       130,       128,       148
       542,       132,       126,       128,       148
       543,        17,       141,       145,       149
       544,        17,       145,        47,       149
       545,       149,       165,       151,       154
       546,       154,       151,        17,        98
       547,       134,       138,       165,       150
       548,       133,       138,       134,       150
       549,       158,       125,       121,       128
       550,       138,       167,       165,       150
       551,        96,        85,        89,       151
       552,        85,        96,        97,       151
       553,        89,        88,       168,       151
       554,        85,        88,        89,       151
       555,        96,       134,       165,       151
       556,        17,       151,       154,       149
       557,       130,       168,       148,       133
       558,        96,        98,        97,       151
       559,        88,        85,        97,       151
       560,       150,       134,       168,       151
       561,       134,        89,       168,       151
       562,        88,        47,       168,       151
       563,       165,       134,       150,       151
       564,       168,       134,       133,        79
       565,       135,       104,        95,       154
       566,       168,       133,       134,       150
       567,        47,        88,        97,       151
       568,       156,       107,       113,       166
       569,       104,       135,       166,       154
       570,       156,       113,       107,       103
       571,       168,       150,       151,       152
       572,        47,       168,       151,       152
       573,       149,        47,       151,       152
       574,       150,       165,       151,       152
       575,       165,       149,       151,       152
       576,       145,        47,       149,       152
       577,       139,       143,       155,       164
       578,       145,       142,        47,       152
       579,       152,       161,        48,       168
       580,       147,       164,       161,       153
       581,        48,       161,       152,       142
       582,       147,       140,       164,       153
       583,       167,       135,       165,       154
       584,       164,       167,       161,       153
       585,       145,       147,       161,       153
       586,       147,       141,       144,       153
       587,       140,       144,       163,       153
       588,       140,       147,       144,       153
       589,       135,       167,       166,       154
       590,       167,       165,       161,       153
       591,       153,       165,       154,       167
       592,       152,       145,       161,       153
       593,       149,       145,       152,       153
       594,       141,       145,       149,       153
       595,       141,       147,       145,       153
       596,       153,       154,       165,       149
       597,       144,       141,        16,       153
       598,       165,       152,       161,       153
       599,       165,       149,       152,       153
       600,        98,        95,        94,       154
       601,       130,       148,       168,       157
       602,        95,        98,        96,       154
       603,       153,       167,       162,       164
       604,       121,       125,       158,       123
       605,       135,        95,       165,       154
       606,        95,        96,       165,       154
       607,        95,       104,        94,       154
       608,       105,       104,       166,       154
       609,       104,       105,        94,       154
       610,       162,       167,       153,       163
       611,       153,       140,       162,       163
       612,       141,       147,       144,       177
       613,         3,        30,        76,        31
       614,         2,         3,        76,        31
       615,        72,         3,        30,        76
       616,        51,        47,       142,        52
       617,        75,         4,        25,        72
       618,         5,         4,        25,        75
       619,        28,        15,       140,        27
       620,        16,       141,        26,        17
       621,       140,        27,        15,       144
       622,        16,        27,        26,       144
       623,         4,        30,        25,        72
       624,        47,        48,       142,        52
       625,        45,        74,        53,        70
       626,        26,       141,       144,       177
       627,        44,        74,        53,        45
       628,       145,        51,       142,       177
       629,        54,        55,        62,       176
       630,        27,        16,        15,       144
       631,        51,        17,       145,        47
       632,        12,        14,       143,       169
       633,        17,        51,       145,       177
       634,        69,         1,        24,        73
       635,       147,       141,       145,       177
       636,        51,       145,       142,        47
       637,        12,        14,        13,       143
       638,       141,        16,        26,       144
       639,       139,        12,        13,       143
       640,       141,        26,        17,       177
       641,        15,        14,        28,       140
       642,        60,        45,        53,        70
       643,        39,        32,        37,       176
       644,        49,       139,        58,        12
       645,        12,        49,       139,        13
       646,        50,       178,         5,         6
       647,       176,        32,        33,        39
       648,        17,        18,        51,       177
       649,        51,        18,        56,       177
       650,       142,       147,       145,       177
       651,        27,        26,       144,       177
       652,        74,        50,        71,        44
       653,        17,        26,        18,       177
       654,        69,         2,        24,         1
       655,        30,        72,         4,         3
       656,        50,         5,        71,        44
       657,        60,        45,        70,        46
       658,        73,         1,        24,        46
       659,        60,        73,        24,        46
       660,       139,        49,        58,       146
       661,        44,        74,        50,        53
       662,        58,        49,        48,       146
       663,        24,         2,        69,       172
       664,       141,        17,       145,       177
       665,        55,        54,         7,       176
       666,         7,        39,         8,       176
       667,        55,         7,         8,       176
       668,        61,        54,        62,       176
       669,        39,         7,        33,       176
       670,        50,         5,       178,        71
       671,        50,        74,        71,       178
       672,        75,        71,        77,       178
       673,         5,        71,        75,       178
       674,       176,        33,        32,       173
       675,        54,        50,         6,       178
       676,        71,        74,        77,       178
       677,        74,        50,        53,       178
       678,        72,        77,       172,       178
       679,        72,        75,        77,       178
       680,        25,        75,        72,       178
       681,        25,         5,        75,       178
       682,         6,         5,        25,       178
       683,        33,         6,        25,       178
       684,        53,        54,       173,       178
       685,        53,        50,        54,       178
       686,        54,         7,       173,       178
       687,         7,        54,         6,       178
       688,        30,        72,       172,       178
       689,        30,        25,        72,       178
       690,       173,        30,       172,       178
       691,        33,        30,       173,       178
       692,        30,        33,        25,       178
       693,         7,        33,       173,       178
       694,        33,         7,         6,       178
       695,       172,       173,       178,       179
       696,        77,       172,       178,       179
       697,        53,        60,        70,       179
       698,       173,        53,       178,       179
       699,        24,       173,       172,       179
       700,        74,        77,       178,       179
       701,        77,        74,        70,       179
       702,        77,        73,       172,       179
       703,        77,        70,        73,       179
       704,        53,        74,       178,       179
       705,        74,        53,        70,       179
       706,        73,        60,        24,       179
       707,        70,        60,        46,        73
       708,        73,        70,        60,       179
       709,        61,        53,       173,       179
       710,        60,        53,        61,       179
       711,        24,        61,       173,       179
       712,        24,        60,        61,       179
       713,        73,        24,       172,       179
       714,        24,        69,        73,       172
       715,        57,        65,        63,       180
       716,        10,        65,       171,       180
       717,        63,        65,        10,       180
       718,        65,        67,       171,       180
       719,        65,        57,        67,       180
       720,        36,        10,       171,       180
       721,        35,        10,        36,       180
       722,        35,        36,        40,       180
       723,        67,        57,        20,       180
       724,        42,        36,       171,       180
       725,        36,        42,        40,       180
       726,        40,        42,        20,       180
       727,        20,        57,        19,       180
       728,        67,        21,       171,       180
       729,        67,        20,        21,       180
       730,        21,        42,       171,       180
       731,        20,        42,        21,       180
       732,        40,        35,       180,       181
       733,        43,        35,        40,       181
       734,        35,        43,        29,       181
       735,        40,        34,        43,       181
       736,        35,        10,       180,       181
       737,        35,        11,        10,       181
       738,        11,        29,       182,       181
       739,        11,        35,        29,       181
       740,        57,        19,       180,       181
       741,       171,        66,         8,       174
       742,       171,         8,        66,         9
       743,        18,        26,        34,       175
       744,        34,        40,        19,       181
       745,        10,        63,       180,       181
       746,        11,        63,        10,       181
       747,        59,        11,       182,       181
       748,        63,        11,        59,       181
       749,        19,        57,        56,       181
       750,        63,        57,       180,       181
       751,        68,        57,        63,       181
       752,        68,        59,       182,       181
       753,        68,        63,        59,       181
       754,        56,        68,       182,       181
       755,        57,        68,        56,       181
       756,       172,        24,        32,       173
       757,        12,        11,        29,       182
       758,        12,        59,        11,       182
       759,       172,        30,        32,        31
       760,        19,       180,        40,        20
       761,        14,        12,        28,       169
       762,       140,        28,        27,       169
       763,       147,       139,       143,       169
       764,       147,       143,       140,       169
       765,        29,        12,       182,       169
       766,        28,        12,        29,       169
       767,       139,        12,       143,       169
       768,        14,        28,       140,       169
       769,       143,        14,       140,       169
       770,       144,        27,       177,       169
       771,       140,        27,       144,       169
       772,       147,       144,       177,       169
       773,       147,       140,       144,       169
       774,       182,       177,       169,       170
       775,        56,       177,       182,       170
       776,        19,        40,       180,       181
       777,       177,       147,       169,       170
       778,        56,        51,       177,       170
       779,        52,        51,        56,       170
       780,        26,        18,       177,       175
       781,        32,        24,       172,        31
       782,        68,        58,        52,       170
       783,        58,       139,       146,       170
       784,        58,        48,        52,       170
       785,        48,        58,       146,       170
       786,        51,       142,       177,       170
       787,       142,        51,        52,       170
       788,       142,       147,       177,       170
       789,       142,       146,       147,       170
       790,        48,       142,        52,       170
       791,       142,        48,       146,       170
       792,        12,       182,       169,       170
       793,       139,        12,       169,       170
       794,       147,       139,       169,       170
       795,       146,       139,       147,       170
       796,        32,        30,       172,       173
       797,       139,        58,        12,       170
       798,        64,        21,       174,       171
       799,        67,        21,        64,       171
       800,        21,        38,       174,       171
       801,        42,        38,        21,       171
       802,        66,        65,        67,       171
       803,       176,        23,        32,        37
       804,        65,        66,         9,       171
       805,         9,        41,        36,       171
       806,        36,        41,        42,       171
       807,        66,        64,       174,       171
       808,        64,        66,        67,       171
       809,        38,        41,       174,       171
       810,        42,        41,        38,       171
       811,        41,         8,       174,       171
       812,        18,        56,       177,       175
       813,         9,         8,        41,       171
       814,        10,         9,        36,       171
       815,        65,         9,        10,       171
       816,        69,        76,        77,       172
       817,        76,        72,        77,       172
       818,        69,        77,        73,       172
       819,        30,        72,        76,       172
       820,       170,        12,        59,        58
       821,         2,        24,        31,       172
       822,        30,        76,        31,       172
       823,        76,         2,        31,       172
       824,        76,        69,         2,       172
       825,       170,        68,        59,       182
       826,        59,        68,       170,        58
       827,        59,        12,       170,       182
       828,        32,        24,        23,       173
       829,        33,        30,        32,       173
       830,        61,        54,       176,       173
       831,        61,        53,        54,       173
       832,        24,        61,        23,       173
       833,       176,        61,        23,        62
       834,        22,        37,       176,       174
       835,       176,        23,        61,       173
       836,         7,        33,       176,       173
       837,        68,        56,       170,        52
       838,       177,        56,       182,       175
       839,        68,       170,        56,       182
       840,        22,        62,       176,        23
       841,       176,        37,        22,        23
       842,       176,        62,        22,       174
       843,        54,         7,       176,       173
       844,        64,        55,        66,       174
       845,         8,        55,       176,       174
       846,        55,         8,        66,       174
       847,        55,        62,       176,       174
       848,        55,        64,        62,       174
       849,        39,         8,       176,       174
       850,         8,        39,        41,       174
       851,       176,        32,        23,       173
       852,        41,        37,        38,       174
       853,        64,        22,        62,       174
       854,        37,        39,       176,       174
       855,        41,        39,        37,       174
       856,        27,        34,        26,       175
       857,        37,        22,        38,       174
       858,        64,        21,        22,       174
       859,        38,        22,        21,       174
       860,        27,        26,       177,       175
       861,        18,        34,        19,       175
       862,        29,       182,       181,       175
       863,       182,        29,       169,       175
       864,        34,        43,       181,       175
       865,        19,        34,       181,       175
       866,       177,       182,       169,       175
       867,        43,        29,       181,       175
       868,        43,        34,        27,       175
       869,       182,        56,       181,       175
       870,        56,        19,       181,       175
       871,        27,       177,       169,       175
       872,        29,        28,       169,       175
       873,        43,        28,        29,       175
       874,        28,        27,       169,       175
       875,        28,        43,        27,       175
       876,        18,        19,        56,       175
*****
**<?xml version="1.0" encoding="utf-8"?>
**<Altair_XML_Export>
**    <UDM xmlns:SOAP-ENV="http://schemas.xmlsoap.org/soap/envelope/" xmlns:SOAP-ENC="http://schemas.xmlsoap.org/soap/encoding/" xmlns:xsi="http://www.w3.org/2001/XMLSchema-instance" xmlns:xsd="http://www.w3.org/2001/XMLSchema" xmlns:udmcfg="http://schemas.altair.com/AltairUDMRuntimeConfig" xmlns:udmxml="http://schemas.altair.com/AltairUDM" xmlns:importrules="http://schemas.altair.com/hsm/importrules" xmlns:folderstructure="http://schemas.altair.com/hsm/folderstructure" xmlns:externalds="http://schemas.altair.com/hsm/externalds" xsi:type="udmxml:UDMCType" schemaVersion="12">
**        <udmxml:EntityCollection xsi:type="udmxml:EntityCollectionCType">
**            <udmxml:Entity xsi:type="udmxml:AssemblyDMCType" displayName="HW_Assembly" contentDefinitionType="UDMAssemblyDM" id="2cef59ef45253e45987ba34fd9451d00:0">
**                <udmxml:Children>
**                    <udmxml:Child xsi:type="udmxml:ChildCType" refId="2418a9499ff4494d93cc0ba98f1c8242:0" timestamp="1780406262521187" childFlags="0" groupName="boas" contentDefinitionType="UDMBOA"/>
**                </udmxml:Children>
**            </udmxml:Entity>
**            <udmxml:Entity xsi:type="udmxml:BOACType" displayName="HW_BOA" contentDefinitionType="UDMBOA" id="2418a9499ff4494d93cc0ba98f1c8242:0">
**                <udmxml:Children>
**                    <udmxml:Child xsi:type="udmxml:ChildCType" refId="75c4de13dd793f4c8900f63a35660553:0" timestamp="1780406262521187" childFlags="0" groupName="parts" contentDefinitionType="UDMPartProtoOcc">
**                        <AdditionalIdList xsi:type="udmxml:AdditionalIdCType" xmlns="http://schemas.altair.com/AltairUDM" keyValue="Model" keyName="displayname" contentDefinitionType="UDMPartProtoOcc"/>
**                    </udmxml:Child>
**                </udmxml:Children>
**            </udmxml:Entity>
**            <udmxml:Entity xsi:type="udmxml:PartCType" displayName="Module Model.p" contentDefinitionType="UDMPartProto" id="f49ec8b8d86a3d42ab0c62c9b579f87a:0">
**                <udmxml:Children>
**                    <udmxml:Child xsi:type="udmxml:ChildCType" refId="ba58d61e632a75438624be495de46906:0" timestamp="1780406280133799" childFlags="0" groupName="partprotoinst" contentDefinitionType="UDMPartProtoInst"/>
**                </udmxml:Children>
**            </udmxml:Entity>
**            <udmxml:Entity xsi:type="udmxml:PartCType" prototypeRefId="f49ec8b8d86a3d42ab0c62c9b579f87a:0" displayName="Model" contentDefinitionType="UDMPartProtoOcc" id="75c4de13dd793f4c8900f63a35660553:0">
**                <udmxml:Attributes>
**                    <udmxml:Attribute xsi:type="udmxml:AttributeCType" valueutf8="f49ec8b8d86a3d42ab0c62c9b579f87a" type="string" name="protoref" displayName="Prototype reference">f49ec8b8d86a3d42ab0c62c9b579f87a</udmxml:Attribute>
**                    <udmxml:Attribute xsi:type="udmxml:AttributeCType" valueutf8="Components(2)" type="string" name="EntitySelectionExp">Components(2)</udmxml:Attribute>
**                    <udmxml:Attribute xsi:type="udmxml:AttributeCType" valueutf8="2" type="string" name="SelectionExp">2</udmxml:Attribute>
**                    <udmxml:Attribute xsi:type="udmxml:AttributeCType" valueutf8="11" type="string" name="UdmxmlString_HmOccurrenceColor">11</udmxml:Attribute>
**                    <udmxml:Attribute xsi:type="udmxml:AttributeCType" valueutf8="2" type="string" name="UdmxmlString_HmOccurrenceId">2</udmxml:Attribute>
**                    <udmxml:Attribute xsi:type="udmxml:AttributeCType" valueutf8="9757073" type="string" name="UdmxmlString_HmOccurrenceTrueColor">9757073</udmxml:Attribute>
**                    <udmxml:Attribute xsi:type="udmxml:AttributeCType" valueutf8="true" type="boolean" name="pseudo root">true</udmxml:Attribute>
**                </udmxml:Attributes>
**                <udmxml:Children>
**                    <udmxml:Child xsi:type="udmxml:ChildCType" refId="924177f70cab0e4db837cacf47167f2e:0" timestamp="1780406280134763" childFlags="0" groupName="partprotooccs" contentDefinitionType="UDMPartProtoOcc">
**                        <AdditionalIdList xsi:type="udmxml:AdditionalIdCType" xmlns="http://schemas.altair.com/AltairUDM" keyValue="螺栓" keyName="displayname" contentDefinitionType="UDMPartProtoOcc"/>
**                    </udmxml:Child>
**                </udmxml:Children>
**            </udmxml:Entity>
**        </udmxml:EntityCollection>
**        <udmxml:RelationCollection xsi:type="udmxml:RelationCollectionCType"/>
**        <udmxml:RootEntities xsi:type="udmxml:RootEntityCollectionCType">
**            <udmxml:ItemId>2cef59ef45253e45987ba34fd9451d00:0</udmxml:ItemId>
**        </udmxml:RootEntities>
**    </UDM>
**</Altair_XML_Export>
**<Altair_Model_Export/>
