**
** ABAQUS Input Deck Generated by HyperMesh Version  : 2025.0.0.24
** Generated using HyperMesh-Abaqus Template Version : 2025.0.0.24-168648
** Generated on 05-18-2026 at 17:00:39
**
**   Template:  ABAQUS/STANDARD 3D
**
*NODE
         1,  6.0            ,  7.347880795E-16,  0.0            
         2,  5.6381557247154,  -2.052120859954,  0.0            
         3,  4.5962666587139,  -3.856725658119,  0.0            
         4,  3.0            ,  -5.196152422707,  0.0            
         5,  1.0418890660016,  -5.908846518073,  0.0            
         6,  -1.041889066002,  -5.908846518073,  0.0            
         7,  -3.0           ,  -5.196152422707,  0.0            
         8,  -4.596266658714,  -3.856725658119,  0.0            
         9,  -5.638155724715,  -2.052120859954,  0.0            
        10,  -6.0           ,  0.0            ,  0.0            
        11,  -5.638155724715,  2.052120859954 ,  0.0            
        12,  -4.596266658714,  3.8567256581192,  0.0            
        13,  -3.0           ,  5.1961524227066,  0.0            
        14,  -1.041889066002,  5.9088465180732,  0.0            
        15,  1.0418890660016,  5.9088465180732,  0.0            
        16,  3.0            ,  5.1961524227066,  0.0            
        17,  4.5962666587139,  3.8567256581192,  0.0            
        18,  5.6381557247154,  2.052120859954 ,  0.0            
        19,  4.7452965648758,  -0.050177367508,  0.0            
        20,  0.8778263022273,  -4.664067551637,  0.0            
        21,  -4.745131286808,  0.0485147425321,  0.0            
        22,  -0.877798103905,  4.6632265795116,  0.0            
        23,  2.0706460848257,  -3.809065679595,  0.0            
        24,  3.2144185730879,  -2.693658360979,  0.0            
        25,  4.1123533269862,  -1.372269077008,  0.0            
        26,  -4.068822146731,  -1.21605605985 ,  0.0            
        27,  -3.107170397834,  -2.461217378804,  0.0            
        28,  -1.87721597052 ,  -3.491485657172,  0.0            
        29,  -0.483253758096,  -4.219711913925,  0.0            
        30,  -2.070749547435,  3.8077319413105,  0.0            
        31,  -3.214517308616,  2.6919630799182,  0.0            
        32,  -4.112434677694,  1.3702726783917,  0.0            
        33,  4.0693071841818,  1.2140416515929,  0.0            
        34,  3.1076940857319,  2.4594262902794,  0.0            
        35,  1.8776485982179,  3.4899834330898,  0.0            
        36,  0.4834411198229,  4.2185510303044,  0.0            
        37,  -0.613011034236,  -1.958144512498,  0.0            
        38,  0.6201491706809,  -0.519881418397,  0.0            
        39,  1.817925109971 ,  0.9479739258172,  0.0            
        40,  1.8808125633104,  -1.574849199692,  0.0            
        41,  0.7055118242936,  -2.848027388893,  0.0            
        42,  2.9268388519327,  -0.19370002061 ,  0.0            
        43,  -1.88064234722 ,  1.5723109782482,  0.0            
        44,  -0.619690587489,  0.5172113185591,  0.0            
        45,  -2.926543440215,  0.1908878917613,  0.0            
        46,  -1.817425623166,  -0.950676576745,  0.0            
        47,  -0.705403094349,  2.8459800138191,  0.0            
        48,  0.6134530748529,  1.955723306486 ,  0.0            
**HW_COMPONENT     ID=2     COLOR=43     NAME=mesh
*ELEMENT,TYPE=S4R
         1,        19,         1,         2,        25
         2,        25,         2,         3,        24
         3,        24,         3,         4,        23
         4,        23,         4,         5,        20
         5,        20,         5,         6,        29
         6,        29,         6,         7,        28
         7,        28,         7,         8,        27
         8,        27,         8,         9,        26
         9,        26,         9,        10,        21
        10,        21,        10,        11,        32
        11,        32,        11,        12,        31
        12,        31,        12,        13,        30
        13,        30,        13,        14,        22
        14,        22,        14,        15,        36
        15,        36,        15,        16,        35
        16,        35,        16,        17,        34
        17,        34,        17,        18,        33
        18,        33,        18,         1,        19
        19,        28,        37,        41,        29
        20,        29,        41,        23,        20
        21,        37,        38,        40,        41
        22,        41,        40,        24,        23
        23,        38,        39,        42,        40
        24,        40,        42,        25,        24
        25,        39,        34,        33,        42
        26,        42,        33,        19,        25
        27,        43,        45,        32,        31
        28,        45,        26,        21,        32
        29,        38,        37,        46,        44
        30,        44,        46,        45,        43
        31,        37,        28,        27,        46
        32,        46,        27,        26,        45
        33,        36,        47,        30,        22
        34,        47,        43,        31,        30
        35,        34,        39,        48,        35
        36,        35,        48,        47,        36
        37,        39,        38,        44,        48
        38,        48,        44,        43,        47
*****
**<?xml version="1.0" encoding="utf-8"?>
**<Altair_XML_Export>
**    <UDM xmlns:SOAP-ENV="http://schemas.xmlsoap.org/soap/envelope/" xmlns:SOAP-ENC="http://schemas.xmlsoap.org/soap/encoding/" xmlns:xsi="http://www.w3.org/2001/XMLSchema-instance" xmlns:xsd="http://www.w3.org/2001/XMLSchema" xmlns:udmcfg="http://schemas.altair.com/AltairUDMRuntimeConfig" xmlns:udmxml="http://schemas.altair.com/AltairUDM" xmlns:importrules="http://schemas.altair.com/hsm/importrules" xmlns:folderstructure="http://schemas.altair.com/hsm/folderstructure" xmlns:externalds="http://schemas.altair.com/hsm/externalds" xsi:type="udmxml:UDMCType" schemaVersion="12">
**        <udmxml:EntityCollection xsi:type="udmxml:EntityCollectionCType">
**            <udmxml:Entity xsi:type="udmxml:AssemblyDMCType" displayName="HW_Assembly" contentDefinitionType="UDMAssemblyDM" id="34e230ba7999a546a1e317f2ed78f7d5:0">
**                <udmxml:Children>
**                    <udmxml:Child xsi:type="udmxml:ChildCType" refId="43b6d1432dcc4d4e999f5463c5569b30:0" timestamp="1779094148728457" childFlags="0" groupName="boas" contentDefinitionType="UDMBOA"/>
**                </udmxml:Children>
**            </udmxml:Entity>
**            <udmxml:Entity xsi:type="udmxml:BOACType" displayName="HW_BOA" contentDefinitionType="UDMBOA" id="43b6d1432dcc4d4e999f5463c5569b30:0">
**                <udmxml:Children>
**                    <udmxml:Child xsi:type="udmxml:ChildCType" refId="1e86d51d2b8ebb409a05df61e4c1c1c1:0" timestamp="1779094148728457" childFlags="0" groupName="parts" contentDefinitionType="UDMPartProtoOcc">
**                        <AdditionalIdList xsi:type="udmxml:AdditionalIdCType" xmlns="http://schemas.altair.com/AltairUDM" keyValue="Model" keyName="displayname" contentDefinitionType="UDMPartProtoOcc"/>
**                    </udmxml:Child>
**                </udmxml:Children>
**            </udmxml:Entity>
**            <udmxml:Entity xsi:type="udmxml:PartCType" displayName="Module Model.p" contentDefinitionType="UDMPartProto" id="4659641c5d3ca24c83ff991dc9c2ad12:0">
**                <udmxml:Children>
**                    <udmxml:Child xsi:type="udmxml:ChildCType" refId="5822eaa76b5c874dbf5ecafb2f468c9f:0" timestamp="1779094149465387" childFlags="0" groupName="partprotoinst" contentDefinitionType="UDMPartProtoInst"/>
**                </udmxml:Children>
**            </udmxml:Entity>
**            <udmxml:Entity xsi:type="udmxml:PartCType" prototypeRefId="4659641c5d3ca24c83ff991dc9c2ad12:0" displayName="Model" contentDefinitionType="UDMPartProtoOcc" id="1e86d51d2b8ebb409a05df61e4c1c1c1:0">
**                <udmxml:Attributes>
**                    <udmxml:Attribute xsi:type="udmxml:AttributeCType" valueutf8="4659641c5d3ca24c83ff991dc9c2ad12" type="string" name="protoref" displayName="Prototype reference">4659641c5d3ca24c83ff991dc9c2ad12</udmxml:Attribute>
**                    <udmxml:Attribute xsi:type="udmxml:AttributeCType" valueutf8="Components(2)" type="string" name="EntitySelectionExp">Components(2)</udmxml:Attribute>
**                    <udmxml:Attribute xsi:type="udmxml:AttributeCType" valueutf8="2" type="string" name="SelectionExp">2</udmxml:Attribute>
**                    <udmxml:Attribute xsi:type="udmxml:AttributeCType" valueutf8="59" type="string" name="UdmxmlString_HmOccurrenceColor">59</udmxml:Attribute>
**                    <udmxml:Attribute xsi:type="udmxml:AttributeCType" valueutf8="2" type="string" name="UdmxmlString_HmOccurrenceId">2</udmxml:Attribute>
**                    <udmxml:Attribute xsi:type="udmxml:AttributeCType" valueutf8="7389155" type="string" name="UdmxmlString_HmOccurrenceTrueColor">7389155</udmxml:Attribute>
**                    <udmxml:Attribute xsi:type="udmxml:AttributeCType" valueutf8="true" type="boolean" name="pseudo root">true</udmxml:Attribute>
**                </udmxml:Attributes>
**                <udmxml:Children>
**                    <udmxml:Child xsi:type="udmxml:ChildCType" refId="62664e8abd817c4099486c4394768a90:0" timestamp="1779094149466390" childFlags="0" groupName="partprotooccs" contentDefinitionType="UDMPartProtoOcc">
**                        <AdditionalIdList xsi:type="udmxml:AdditionalIdCType" xmlns="http://schemas.altair.com/AltairUDM" keyValue="螺栓" keyName="displayname" contentDefinitionType="UDMPartProtoOcc"/>
**                    </udmxml:Child>
**                </udmxml:Children>
**            </udmxml:Entity>
**        </udmxml:EntityCollection>
**        <udmxml:RelationCollection xsi:type="udmxml:RelationCollectionCType"/>
**        <udmxml:RootEntities xsi:type="udmxml:RootEntityCollectionCType">
**            <udmxml:ItemId>34e230ba7999a546a1e317f2ed78f7d5:0</udmxml:ItemId>
**        </udmxml:RootEntities>
**    </UDM>
**</Altair_XML_Export>
**<Altair_Model_Export/>
